<UPF version="2.0.1">
  <PP_INFO>
    Generated using "atomic" code by A. Dal Corso  v.7.4
    Author: ADC
    Generation date: 26Mar2026
    Pseudopotential type: USPP
    Element: Se
    Functional: LDA
    Suggested minimum cutoff for wavefunctions:  22. Ry
    Suggested minimum cutoff for charge density: 118. Ry
    The Pseudo was generated with a Scalar-Relativistic Calculation
    L component and cutoff radius for Local Potential:  2   1.9000
    Valence configuration: 
    nl pn  l   occ       Rcut    Rcut US       E pseu
    4S  1  0  2.00      1.500      1.900    -1.285166
    4P  2  1  4.00      1.500      1.900    -0.489562
    Generation configuration:
    4S  1  0  2.00      1.500      1.900    -1.285164
    4S  1  0  0.00      1.500      1.900     0.300000
    4P  2  1  4.00      1.500      1.900    -0.489560
    4P  2  1  0.00      1.500      1.900     0.300000
    4D  3  2 -2.00      1.900      1.900     0.500000
    Pseudization used: troullier-martins
    <PP_INPUTFILE>
@input
title='Se',
zed=34.,
rel=1,
config='[Ar] 4s2 4p4 3d10 4d-1',
iswitch=3,
dft='LDA'
/
@inputp
lpaw=.false.,
pseudotype=3,
file_pseudopw='Se.pz-n-rrkjus_psl.1.0.0.UPF',
author='ADC',
lloc=2,
which_augfun='PSQ',
rmatch_augfun_nc=.true.,
nlcc=.true.,
new_core_ps=.true.,
rcore=1.8,
tm=.true.
/
5
4S  1  0  2.00  0.00  1.50  1.90  0.0
4S  1  0  0.00  0.30  1.50  1.90  0.0
4P  2  1  4.00  0.00  1.50  1.90  0.0
4P  2  1  0.00  0.30  1.50  1.90  0.0
4D  3  2 -2.00  0.50  1.90  1.90  0.0
    </PP_INPUTFILE>
  </PP_INFO>
    <!-- END OF HUMAN READABLE SECTION -->
  <PP_HEADER generated="Generated using 'atomic' code by A. Dal Corso  v.7.4" author="ADC" date="26Mar2026" comment="" element="Se" pseudo_type="USPP" relativistic="scalar" is_ultrasoft="true" is_paw="false" is_coulomb="false" has_so="false" has_wfc="false" has_gipaw="false" paw_as_gipaw="false" core_correction="true" with_metagga_info="false" functional="LDA" z_valence="6.0000000000000000" total_psenergy="-20.649665458219914" wfc_cutoff="22.280316836839827" rho_cutoff="117.50281946203135" l_max="2" l_max_rho="4" l_local="2" mesh_size="1211" number_of_wfc="2" number_of_proj="4"/>
  <PP_MESH mesh="1211" dx="1.2500000000000001E-002" xmin="-7.0000000000000000" rmax="100.00000000000000" zmesh="34.000000000000000">
    <PP_R>
   2.682005781042695E-05   2.715741260791242E-05   2.749901080637006E-05
   2.784490578121335E-05   2.819515157923588E-05   2.854980292705614E-05
   2.890891523966878E-05   2.927254462910327E-05   2.964074791319148E-05
   3.001358262444572E-05   3.039110701904815E-05   3.077338008595349E-05
   3.116046155610618E-05   3.155241191177343E-05   3.194929239599582E-05
   3.235116502215642E-05   3.275809258367068E-05   3.317013866379801E-05
   3.358736764557669E-05   3.400984472188405E-05   3.443763590562278E-05
   3.487080804003567E-05   3.530942880915002E-05   3.575356674835337E-05
   3.620329125510238E-05   3.665867259976616E-05   3.711978193660631E-05
   3.758669131489484E-05   3.805947369017200E-05   3.853820293564588E-05
   3.902295385373504E-05   3.951380218775667E-05   4.001082463376158E-05
   4.051409885251815E-05   4.102370348164702E-05   4.153971814790828E-05
   4.206222347964337E-05   4.259130111937340E-05   4.312703373655597E-05
   4.366950504050255E-05   4.421879979345801E-05   4.477500382384505E-05
   4.533820403967501E-05   4.590848844212742E-05   4.648594613930050E-05
   4.707066736013424E-05   4.766274346850902E-05   4.826226697752136E-05
   4.886933156393923E-05   4.948403208283945E-05   5.010646458242864E-05
   5.073672631905125E-05   5.137491577238587E-05   5.202113266083296E-05
   5.267547795709617E-05   5.333805390395927E-05   5.400896403026197E-05
   5.468831316707650E-05   5.537620746408757E-05   5.607275440617872E-05
   5.677806283022674E-05   5.749224294210786E-05   5.821540633391755E-05
   5.894766600140703E-05   5.968913636163924E-05   6.043993327086644E-05
   6.120017404263322E-05   6.196997746610689E-05   6.274946382463848E-05
   6.353875491455749E-05   6.433797406420250E-05   6.514724615319168E-05
   6.596669763193539E-05   6.679645654139432E-05   6.763665253308635E-05
   6.848741688934452E-05   6.934888254383038E-05   7.022118410230510E-05
   7.110445786366186E-05   7.199884184122303E-05   7.290447578430466E-05
   7.382150120005289E-05   7.475006137555465E-05   7.569030140022647E-05
   7.664236818848525E-05   7.760641050270358E-05   7.858257897645443E-05
   7.957102613804785E-05   8.057190643436378E-05   8.158537625498496E-05
   8.261159395663272E-05   8.365071988791081E-05   8.470291641436009E-05
   8.576834794382846E-05   8.684718095216019E-05   8.793958400920765E-05
   8.904572780517104E-05   9.016578517726892E-05   9.129993113674438E-05
   9.244834289621119E-05   9.361119989734314E-05   9.478868383891254E-05
   9.598097870518084E-05   9.718827079464653E-05   9.841074874915506E-05
   9.964860358337387E-05   1.009020287146392E-04   1.021712199931780E-04
   1.034563757327097E-04   1.047576967414332E-04   1.060753863534038E-04
   1.074096504603042E-04   1.087606975436157E-04   1.101287387071935E-04
   1.115139877102532E-04   1.129166610007695E-04   1.143369777492979E-04
   1.157751598832201E-04   1.172314321214203E-04   1.187060220093988E-04
   1.201991599548255E-04   1.217110792635423E-04   1.232420161760170E-04
   1.247922099042571E-04   1.263619026691865E-04   1.279513397384932E-04
   1.295607694649531E-04   1.311904433252354E-04   1.328406159591961E-04
   1.345115452096669E-04   1.362034921627425E-04   1.379167211885768E-04
   1.396514999826905E-04   1.414080996077996E-04   1.431867945361695E-04
   1.449878626925015E-04   1.468115854973593E-04   1.486582479111416E-04
   1.505281384786074E-04   1.524215493739625E-04   1.543387764465113E-04
   1.562801192668846E-04   1.582458811738476E-04   1.602363693216978E-04
   1.622518947282580E-04   1.642927723234735E-04   1.663593209986208E-04
   1.684518636561349E-04   1.705707272600630E-04   1.727162428871545E-04
   1.748887457785910E-04   1.770885753923694E-04   1.793160754563423E-04
   1.815715940219265E-04   1.838554835184871E-04   1.861681008084043E-04
   1.885098072428348E-04   1.908809687181732E-04   1.932819557332239E-04
   1.957131434470933E-04   1.981749117378079E-04   2.006676452616714E-04
   2.031917335133686E-04   2.057475708868238E-04   2.083355567368272E-04
   2.109560954414323E-04   2.136095964651439E-04   2.162964744228952E-04
   2.190171491448335E-04   2.217720457419199E-04   2.245615946723518E-04
   2.273862318088256E-04   2.302463985066404E-04   2.331425416726616E-04
   2.360751138351518E-04   2.390445732144768E-04   2.420513837947068E-04
   2.450960153961121E-04   2.481789437485745E-04   2.513006505659220E-04
   2.544616236211951E-04   2.576623568228656E-04   2.609033502920076E-04
   2.641851104404446E-04   2.675081500498772E-04   2.708729883520041E-04
   2.742801511096566E-04   2.777301706989474E-04   2.812235861924560E-04
   2.847609434434615E-04   2.883427951712302E-04   2.919697010473827E-04
   2.956422277833408E-04   2.993609492188785E-04   3.031264464117867E-04
   3.069393077286619E-04   3.108001289368428E-04   3.147095132974979E-04
   3.186680716598868E-04   3.226764225568085E-04   3.267351923012443E-04
   3.308450150842254E-04   3.350065330739228E-04   3.392203965159889E-04
   3.434872638351604E-04   3.478078017381358E-04   3.521826853177536E-04
   3.566125981584735E-04   3.610982324431893E-04   3.656402890613850E-04
   3.702394777186470E-04   3.748965170475609E-04   3.796121347199963E-04
   3.843870675608082E-04   3.892220616629688E-04   3.941178725041420E-04
   3.990752650647333E-04   4.040950139474160E-04   4.091779034981653E-04
   4.143247279288157E-04   4.195362914411546E-04   4.248134083525847E-04
   4.301569032233595E-04   4.355676109854235E-04   4.410463770728740E-04
   4.465940575540573E-04   4.522115192653362E-04   4.578996399465321E-04
   4.636593083780731E-04   4.694914245198712E-04   4.753968996519375E-04
   4.813766565167773E-04   4.874316294635663E-04   4.935627645941458E-04
   4.997710199108554E-04   5.060573654662172E-04   5.124227835145151E-04
   5.188682686652695E-04   5.253948280386481E-04   5.320034814228327E-04
   5.386952614333582E-04   5.454712136744672E-04   5.523323969024827E-04
   5.592798831912428E-04   5.663147580996156E-04   5.734381208411175E-04
   5.806510844556701E-04   5.879547759835126E-04   5.953503366413057E-04
   6.028389220004487E-04   6.104217021676395E-04   6.180998619677068E-04
   6.258746011287404E-04   6.337471344695521E-04   6.417186920894934E-04
   6.497905195606600E-04   6.579638781225176E-04   6.662400448789697E-04
   6.746203129979097E-04   6.831059919132816E-04   6.916984075296796E-04
   7.003989024295258E-04   7.092088360828492E-04   7.181295850597069E-04
   7.271625432452764E-04   7.363091220576514E-04   7.455707506683807E-04
   7.549488762257775E-04   7.644449640810396E-04   7.740604980172152E-04
   7.837969804810437E-04   7.936559328177202E-04   8.036388955086050E-04
   8.137474284119287E-04   8.239831110065242E-04   8.343475426386206E-04
   8.448423427717480E-04   8.554691512397787E-04   8.662296285031556E-04
   8.771254559083444E-04   8.881583359505442E-04   8.993299925397087E-04
   9.106421712699085E-04   9.220966396920850E-04   9.336951875902339E-04
   9.454396272610609E-04   9.573317937971597E-04   9.693735453737461E-04
   9.815667635390023E-04   9.939133535080752E-04   1.006415244460766E-03
   1.019074389842971E-03   1.031892767671913E-03   1.044872380845205E-03
   1.058015257453814E-03   1.071323451098948E-03   1.084799041212942E-03
   1.098444133384165E-03   1.112260859686032E-03   1.126251379010137E-03
   1.140417877403588E-03   1.154762568410583E-03   1.169287693418274E-03
   1.183995522006996E-03   1.198888352304889E-03   1.213968511346987E-03
   1.229238355438821E-03   1.244700270524598E-03   1.260356672560006E-03
   1.276210007889717E-03   1.292262753629630E-03   1.308517418053927E-03
   1.324976540986995E-03   1.341642694200277E-03   1.358518481814121E-03
   1.375606540704676E-03   1.392909540915910E-03   1.410430186076808E-03
   1.428171213823823E-03   1.446135396228635E-03   1.464325540231292E-03
   1.482744488078805E-03   1.501395117769247E-03   1.520280343501453E-03
   1.539403116130364E-03   1.558766423628112E-03   1.578373291550886E-03
   1.598226783511691E-03   1.618330001659037E-03   1.638686087161659E-03
   1.659298220699334E-03   1.680169622959861E-03   1.701303555142308E-03
   1.722703319466575E-03   1.744372259689374E-03   1.766313761626704E-03
   1.788531253682881E-03   1.811028207386242E-03   1.833808137931572E-03
   1.856874604729364E-03   1.880231211961987E-03   1.903881609146840E-03
   1.927829491706599E-03   1.952078601546637E-03   1.976632727639699E-03
   2.001495706617947E-03   2.026671423372429E-03   2.052163811660108E-03
   2.077976854718518E-03   2.104114585888153E-03   2.130581089242690E-03
   2.157380500227121E-03   2.184517006303938E-03   2.211994847607424E-03
   2.239818317606186E-03   2.267991763774021E-03   2.296519588269211E-03
   2.325406248622373E-03   2.354656258432958E-03   2.384274188074507E-03
   2.414264665408788E-03   2.444632376508899E-03   2.475382066391483E-03
   2.506518539758144E-03   2.538046661746191E-03   2.569971358688835E-03
   2.602297618884921E-03   2.635030493378374E-03   2.668175096747428E-03
   2.701736607903791E-03   2.735720270901867E-03   2.770131395758138E-03
   2.804975359280872E-03   2.840257605910261E-03   2.875983648569119E-03
   2.912159069524303E-03   2.948789521258934E-03   2.985880727355620E-03
   3.023438483390778E-03   3.061468657840195E-03   3.099977192996010E-03
   3.138970105895183E-03   3.178453489259686E-03   3.218433512448500E-03
   3.258916422421587E-03   3.299908544715992E-03   3.341416284434229E-03
   3.383446127245071E-03   3.426004640396971E-03   3.469098473744194E-03
   3.512734360785871E-03   3.556919119718138E-03   3.601659654499469E-03
   3.646962955929449E-03   3.692836102741097E-03   3.739286262706929E-03
   3.786320693758948E-03   3.833946745122697E-03   3.882171858465597E-03
   3.931003569059721E-03   3.980449506959197E-03   4.030517398192426E-03
   4.081215065969273E-03   4.132550431903476E-03   4.184531517250402E-03
   4.237166444160390E-03   4.290463436947865E-03   4.344430823376378E-03
   4.399077035959856E-03   4.454410613280196E-03   4.510440201321426E-03
   4.567174554820677E-03   4.624622538636108E-03   4.682793129132069E-03
   4.741695415581673E-03   4.801338601587012E-03   4.861732006517252E-03
   4.922885066964781E-03   4.984807338219712E-03   5.047508495762907E-03
   5.110998336777799E-03   5.175286781681221E-03   5.240383875673485E-03
   5.306299790307966E-03   5.373044825080435E-03   5.440629409038361E-03
   5.509064102410501E-03   5.578359598256921E-03   5.648526724139830E-03
   5.719576443815402E-03   5.791519858946884E-03   5.864368210839270E-03
   5.938132882195749E-03   6.012825398896297E-03   6.088457431798611E-03
   6.165040798561700E-03   6.242587465492444E-03   6.321109549415314E-03
   6.400619319565677E-03   6.481129199506882E-03   6.562651769071465E-03
   6.645199766326791E-03   6.728786089565368E-03   6.813423799320262E-03
   6.899126120405818E-03   6.985906443984063E-03   7.073778329657123E-03
   7.162755507585905E-03   7.252851880635488E-03   7.344081526547462E-03
   7.436458700139602E-03   7.529997835533238E-03   7.624713548408577E-03
   7.720620638288453E-03   7.817734090850787E-03   7.916069080270113E-03
   8.015640971588607E-03   8.116465323116859E-03   8.218557888864926E-03
   8.321934621003913E-03   8.426611672358532E-03   8.532605398931040E-03
   8.639932362456850E-03   8.748609332992374E-03   8.858653291535361E-03
   8.970081432678214E-03   9.082911167294703E-03   9.197160125260409E-03
   9.312846158207452E-03   9.429987342313850E-03   9.548601981127933E-03
   9.668708608428358E-03   9.790325991119991E-03   9.913473132166308E-03
   1.003816927355865E-02   1.016443389932278E-02   1.029228673856340E-02
   1.042174776854673E-02   1.055283721782211E-02   1.068557556938269E-02
   1.081998356386595E-02   1.095608220279450E-02   1.109389275185756E-02
   1.123343674423380E-02   1.137473598395593E-02   1.151781254931762E-02
   1.166268879632332E-02   1.180938736218138E-02   1.195793116884116E-02
   1.210834342657467E-02   1.226064763760319E-02   1.241486759976958E-02
   1.257102741025667E-02   1.272915146935257E-02   1.288926448426322E-02
   1.305139147297294E-02   1.321555776815358E-02   1.338178902112276E-02
   1.355011120585194E-02   1.372055062302496E-02   1.389313390414749E-02
   1.406788801570836E-02   1.424484026339302E-02   1.442401829635019E-02
   1.460545011151206E-02   1.478916405796885E-02   1.497518884139851E-02
   1.516355352855189E-02   1.535428755179460E-02   1.554742071370581E-02
   1.574298319173501E-02   1.594100554291727E-02   1.614151870864784E-02
   1.634455401951682E-02   1.655014320020459E-02   1.675831837443891E-02
   1.696911207001432E-02   1.718255722387459E-02   1.739868718725928E-02
   1.761753573091487E-02   1.783913705037157E-02   1.806352577128641E-02
   1.829073695485354E-02   1.852080610328266E-02   1.875376916534629E-02
   1.898966254199683E-02   1.922852309205433E-02   1.947038813796571E-02
   1.971529547163646E-02   1.996328336033573E-02   2.021439055267565E-02
   2.046865628466595E-02   2.072612028584452E-02   2.098682278548538E-02
   2.125080451888449E-02   2.151810673372476E-02   2.178877119652112E-02
   2.206284019914653E-02   2.234035656544026E-02   2.262136365789915E-02
   2.290590538445308E-02   2.319402620532579E-02   2.348577113998169E-02
   2.378118577416038E-02   2.408031626699949E-02   2.438320935824707E-02
   2.468991237556492E-02   2.500047324192348E-02   2.531494048308995E-02
   2.563336323521054E-02   2.595579125248810E-02   2.628227491495635E-02
   2.661286523635176E-02   2.694761387208465E-02   2.728657312731040E-02
   2.762979596510223E-02   2.797733601472688E-02   2.832924758002418E-02
   2.868558564789215E-02   2.904640589687888E-02   2.941176470588235E-02
   2.978171916295984E-02   3.015632707424792E-02   3.053564697299487E-02
   3.091973812870661E-02   3.130866055640763E-02   3.170247502601858E-02
   3.210124307185153E-02   3.250502700222495E-02   3.291388990919945E-02
   3.332789567843607E-02   3.374710899917860E-02   3.417159537436128E-02
   3.460142113084386E-02   3.503665342977526E-02   3.547736027708766E-02
   3.592361053412265E-02   3.637547392839074E-02   3.683302106446662E-02
   3.729632343502119E-02   3.776545343199239E-02   3.824048435789680E-02
   3.872149043728300E-02   3.920854682832951E-02   3.970172963458835E-02
   4.020111591687636E-02   4.070678370531623E-02   4.121881201152864E-02
   4.173728084097818E-02   4.226227120547427E-02   4.279386513582945E-02
   4.333214569467694E-02   4.387719698944914E-02   4.442910418551980E-02
   4.498795351951117E-02   4.555383231276862E-02   4.612682898500498E-02
   4.670703306811600E-02   4.729453522017011E-02   4.788942723957385E-02
   4.849180207941554E-02   4.910175386198951E-02   4.971937789350270E-02
   5.034477067896663E-02   5.097802993727636E-02   5.161925461647937E-02
   5.226854490923644E-02   5.292600226847674E-02   5.359172942325029E-02
   5.426583039477945E-02   5.494841051271242E-02   5.563957643158148E-02
   5.633943614746755E-02   5.704809901487515E-02   5.776567576381907E-02
   5.849227851712623E-02   5.922802080795521E-02   5.997301759753576E-02
   6.072738529313199E-02   6.149124176623109E-02   6.226470637096102E-02
   6.304789996273999E-02   6.384094491716008E-02   6.464396514910892E-02
   6.545708613213144E-02   6.628043491803555E-02   6.711414015674423E-02
   6.795833211639719E-02   6.881314270370564E-02   6.967870548456299E-02
   7.055515570491465E-02   7.144263031189084E-02   7.234126797520443E-02
   7.325120910881859E-02   7.417259589288676E-02   7.510557229596844E-02
   7.605028409752490E-02   7.700687891069712E-02   7.797550620537082E-02
   7.895631733153154E-02   7.994946554291309E-02   8.095510602094433E-02
   8.197339589899563E-02   8.300449428693234E-02   8.404856229597546E-02
   8.510576306387532E-02   8.617626178040308E-02   8.726022571316083E-02
   8.835782423371859E-02   8.946922884407840E-02   9.059461320347151E-02
   9.173415315549398E-02   9.288802675558144E-02   9.405641429883160E-02
   9.523949834817538E-02   9.643746376290216E-02   9.765049772754562E-02
   9.887878978113031E-02   1.001225318467888E-01   1.013819182617493E-01
   1.026571458077012E-01   1.039484137415433E-01   1.052559238265171E-01
   1.065798803637336E-01   1.079204902240955E-01   1.092779628806207E-01
   1.106525104411740E-01   1.120443476816077E-01   1.134536920793227E-01
   1.148807638472487E-01   1.163257859682523E-01   1.177889842299803E-01
   1.192705872601375E-01   1.207708265622121E-01   1.222899365516474E-01
   1.238281545924694E-01   1.253857210343771E-01   1.269628792502954E-01
   1.285598756744046E-01   1.301769598406452E-01   1.318143844217078E-01
   1.334724052685149E-01   1.351512814501968E-01   1.368512752945726E-01
   1.385726524291395E-01   1.403156818225766E-01   1.420806358267730E-01
   1.438677902193825E-01   1.456774242469151E-01   1.475098206683695E-01
   1.493652657994142E-01   1.512440495571262E-01   1.531464655052897E-01
   1.550728109002673E-01   1.570233867374465E-01   1.589984977982696E-01
   1.609984526978590E-01   1.630235639332360E-01   1.650741479321516E-01
   1.671505251025279E-01   1.692530198825215E-01   1.713819607912200E-01
   1.735376804799711E-01   1.757205157843624E-01   1.779308077768515E-01
   1.801689018200584E-01   1.824351476207315E-01   1.847298992843872E-01
   1.870535153706420E-01   1.894063589492372E-01   1.917887976567680E-01
   1.942012037541304E-01   1.966439541846845E-01   1.991174306331551E-01
   2.016220195852701E-01   2.041581123881481E-01   2.067261053114500E-01
   2.093263996092940E-01   2.119594015829549E-01   2.146255226443481E-01
   2.173251793803133E-01   2.200587936177084E-01   2.228267924893191E-01
   2.256296085006008E-01   2.284676795972582E-01   2.313414492336733E-01
   2.342513664421994E-01   2.371978859033199E-01   2.401814680166955E-01
   2.432025789731022E-01   2.462616908272725E-01   2.493592815716583E-01
   2.524958352111146E-01   2.556718418385295E-01   2.588877977114004E-01
   2.621442053293746E-01   2.654415735127685E-01   2.687804174820685E-01
   2.721612589384379E-01   2.755846261452334E-01   2.790510540105449E-01
   2.825610841707797E-01   2.861152650752908E-01   2.897141520720759E-01
   2.933583074945508E-01   2.970483007494134E-01   3.007847084056179E-01
   3.045681142844616E-01   3.083991095508109E-01   3.122782928054709E-01
   3.162062701787163E-01   3.201836554250044E-01   3.242110700188707E-01
   3.282891432520401E-01   3.324185123317526E-01   3.365998224803271E-01
   3.408337270359824E-01   3.451208875549180E-01   3.494619739146881E-01
   3.538576644188688E-01   3.583086459030433E-01   3.628156138421255E-01
   3.673792724590239E-01   3.720003348346830E-01   3.766795230195013E-01
   3.814175681461510E-01   3.862152105438244E-01   3.910731998539055E-01
   3.959922951471091E-01   4.009732650420813E-01   4.060168878255028E-01
   4.111239515736955E-01   4.162952542757590E-01   4.215316039582632E-01
   4.268338188114978E-01   4.322027273173218E-01   4.376391683786132E-01
   4.431439914503468E-01   4.487180566723288E-01   4.543622350035890E-01
   4.600774083584756E-01   4.658644697444539E-01   4.717243234016375E-01
   4.776578849440841E-01   4.836660815028548E-01   4.897498518708866E-01
   4.959101466496779E-01   5.021479283978194E-01   5.084641717814019E-01
   5.148598637263027E-01   5.213360035724013E-01   5.278936032297252E-01
   5.345336873365608E-01   5.412572934195610E-01   5.480654720558534E-01
   5.549592870372024E-01   5.619398155362255E-01   5.690081482747005E-01
   5.761653896940006E-01   5.834126581276569E-01   5.907510859761079E-01
   5.981818198836361E-01   6.057060209175305E-01   6.133248647495128E-01
   6.210395418394302E-01   6.288512576212748E-01   6.367612326915316E-01
   6.447707029998963E-01   6.528809200424019E-01   6.610931510569595E-01
   6.694086792213744E-01   6.778288038538411E-01   6.863548406159624E-01
   6.949881217183309E-01   7.037299961286809E-01   7.125818297826758E-01
   7.215450057973345E-01   7.306209246871426E-01   7.398110045828941E-01
   7.491166814532675E-01   7.585394093292077E-01   7.680806605311175E-01
   7.777419258989059E-01   7.875247150249458E-01   7.974305564899384E-01
   8.074609981017676E-01   8.176176071373439E-01   8.279019705874898E-01
   8.383156954049211E-01   8.488604087553245E-01   8.595377582716159E-01
   8.703494123113817E-01   8.812970602175596E-01   8.923824125824106E-01
   9.036072015147922E-01   9.149731809108136E-01   9.264821267278813E-01
   9.381358372621912E-01   9.499361334297272E-01   9.618848590507698E-01
   9.739838811380092E-01   9.862350901882637E-01   9.986404004778692E-01
   1.011201750361801E+00   1.023921102576531E+00   1.036800444546722E+00
   1.049841788695762E+00   1.063047172760204E+00   1.076418660108178E+00
   1.089958340061782E+00   1.103668328223559E+00   1.117550766807053E+00
   1.131607824971534E+00   1.145841699160942E+00   1.160254613447075E+00
   1.174848819877116E+00   1.189626598825513E+00   1.204590259350288E+00
   1.219742139553847E+00   1.235084606948294E+00   1.250620058825376E+00
   1.266350922631058E+00   1.282279656344809E+00   1.298408748863685E+00
   1.314740720391202E+00   1.331278122831140E+00   1.348023540186280E+00
   1.364979588962146E+00   1.382148918575863E+00   1.399534211770109E+00
   1.417138185032318E+00   1.434963589019131E+00   1.453013208986182E+00
   1.471289865223318E+00   1.489796413495255E+00   1.508535745487815E+00
   1.527510789259750E+00   1.546724509700249E+00   1.566179908992226E+00
   1.585880027081399E+00   1.605827942151301E+00   1.626026771104250E+00
   1.646479670048357E+00   1.667189834790702E+00   1.688160501336654E+00
   1.709394946395529E+00   1.730896487892572E+00   1.752668485487382E+00
   1.774714341098884E+00   1.797037499436864E+00   1.819641448540232E+00
   1.842529720322027E+00   1.865705891121275E+00   1.889173582261822E+00
   1.912936460618147E+00   1.936998239188344E+00   1.961362677674271E+00
   1.986033583069004E+00   2.011014810251712E+00   2.036310262589960E+00
   2.061923892549643E+00   2.087859702312557E+00   2.114121744401738E+00
   2.140714122314698E+00   2.167640991164584E+00   2.194906558329439E+00
   2.222515084109608E+00   2.250470882393409E+00   2.278778321331205E+00
   2.307441824017916E+00   2.336465869184157E+00   2.365854991896039E+00
   2.395613784263769E+00   2.425746896159209E+00   2.456259035942391E+00
   2.487154971197235E+00   2.518439529476490E+00   2.550117599056026E+00
   2.582194129698674E+00   2.614674133427598E+00   2.647562685309465E+00
   2.680864924247425E+00   2.714586053784056E+00   2.748731342914463E+00
   2.783306126909534E+00   2.818315808149614E+00   2.853765856968631E+00
   2.889661812508825E+00   2.926009283586293E+00   2.962813949567327E+00
   3.000081561255873E+00   3.037817941792084E+00   3.076028987562183E+00
   3.114720669119824E+00   3.153899032118958E+00   3.193570198258517E+00
   3.233740366238930E+00   3.274415812730657E+00   3.315602893354980E+00
   3.357308043677031E+00   3.399537780211402E+00   3.442298701440350E+00
   3.485597488844804E+00   3.529440907948399E+00   3.573835809374558E+00
   3.618789129916957E+00   3.664307893623396E+00   3.710399212893299E+00
   3.757070289589089E+00   3.804328416161440E+00   3.852180976788782E+00
   3.900635448531078E+00   3.949699402498104E+00   3.999380505032503E+00
   4.049686518907610E+00   4.100625304540446E+00   4.152204821219912E+00
   4.204433128350412E+00   4.257318386711210E+00   4.310868859731506E+00
   4.365092914781664E+00   4.419999024480617E+00   4.475595768019694E+00
   4.531891832503203E+00   4.588896014305739E+00   4.646617220446690E+00
   4.705064469981961E+00   4.764246895413187E+00   4.824173744114765E+00
   4.884854379778709E+00   4.946298283877807E+00   5.008515057147092E+00
   5.071514421083951E+00   5.135306219467189E+00   5.199900419895072E+00
   5.265307115342843E+00   5.331536525739746E+00   5.398598999565882E+00
   5.466505015469245E+00   5.535265183902956E+00   5.604890248783235E+00
   5.675391089168135E+00   5.746778720957381E+00   5.819064298613698E+00
   5.892259116905642E+00   5.966374612672497E+00   6.041422366611275E+00
   6.117414105086195E+00   6.194361701961022E+00   6.272277180454296E+00
   6.351172715018062E+00   6.431060633240123E+00   6.511953417770211E+00
   6.593863708270509E+00   6.676804303390533E+00   6.760788162767025E+00
   6.845828409048891E+00   6.931938329947606E+00   7.019131380313525E+00
   7.107421184238141E+00   7.196821537182952E+00   7.287346408135010E+00
   7.379009941789547E+00   7.471826460760214E+00   7.565810467816910E+00
   7.660976648151965E+00   7.757339871674684E+00   7.854915195334769E+00
   7.953717865475088E+00   8.053763320213839E+00   8.155067191856881E+00
   8.257645309340280E+00   8.361513700703556E+00   8.466688595594217E+00
   8.573186427803535E+00   8.681023837834479E+00   8.790217675501781E+00
   8.900785002564701E+00   9.012743095393077E+00   9.126109447666659E+00
   9.240901773108654E+00   9.357138008253472E+00   9.474836315249309E+00
   9.594015084696126E+00   9.714692938519086E+00   9.836888732878384E+00
   9.960621561115516E+00   1.008591075673660E+01   1.021277589643339E+01
   1.034123680314202E+01   1.047131354914056E+01   1.060302645918523E+01
   1.073639611368614E+01   1.087144335192321E+01   1.100818927530212E+01
   1.114665525065163E+01   1.128686291356212E+01   1.142883417176614E+01
   1.157259120856166E+01   1.171815648627812E+01   1.186555274978633E+01
   1.201480303005237E+01   1.216593064773614E+01   1.231895921683542E+01
   1.247391264837543E+01   1.263081515414511E+01   1.278969125048025E+01
   1.295056576209409E+01   1.311346382595640E+01   1.327841089522104E+01
   1.344543274320320E+01   1.361455546740646E+01   1.378580549360050E+01
   1.395920957995038E+01   1.413479482119733E+01   1.431258865289256E+01
   1.449261885568402E+01   1.467491355965712E+01   1.485950124873028E+01
   1.504641076510542E+01   1.523567131377476E+01   1.542731246708413E+01
   1.562136416935356E+01   1.581785674155639E+01   1.601682088605675E+01
   1.621828769140702E+01   1.642228863720547E+01   1.662885559901486E+01
   1.683802085334329E+01   1.704981708268725E+01   1.726427738063850E+01
   1.748143525705495E+01   1.770132464329654E+01   1.792397989752730E+01
   1.814943581008364E+01   1.837772760891061E+01   1.860889096506630E+01
   1.884296199829532E+01   1.907997728267291E+01   1.931997385231941E+01
   1.956298920718711E+01   1.980906131891969E+01   2.005822863678516E+01
   2.031053009368395E+01   2.056600511223193E+01   2.082469361092057E+01
   2.108663601035411E+01   2.135187323956533E+01   2.162044674241100E+01
   2.189239848404727E+01   2.216777095748710E+01   2.244660719023975E+01
   2.272895075103382E+01   2.301484575662519E+01   2.330433687869006E+01
   2.359746935080526E+01   2.389428897551600E+01   2.419484213149243E+01
   2.449917578077673E+01   2.480733747612069E+01   2.511937536841622E+01
   2.543533821421888E+01   2.575527538336606E+01   2.607923686669145E+01
   2.640727328383583E+01   2.673943589115683E+01   2.707577658973767E+01
   2.741634793349672E+01   2.776120313739941E+01   2.811039608577287E+01
   2.846398134072578E+01   2.882201415067365E+01   2.918455045897136E+01
   2.955164691265476E+01   2.992336087129151E+01   3.029975041594394E+01
   3.068087435824424E+01   3.106679224958368E+01   3.145756439041806E+01
   3.185325183968930E+01   3.225391642436642E+01   3.265962074910603E+01
   3.307042820603414E+01   3.348640298465180E+01   3.390761008186437E+01
   3.433411531213780E+01   3.476598531778212E+01   3.520328757936422E+01
   3.564609042625231E+01   3.609446304729197E+01   3.654847550161752E+01
   3.700819872959872E+01   3.747370456392512E+01   3.794506574083054E+01
   3.842235591145773E+01   3.890564965336699E+01   3.939502248218880E+01
   3.989055086342319E+01   4.039231222438801E+01   4.090038496631662E+01
   4.141484847660870E+01   4.193578314123448E+01   4.246327035729502E+01
   4.299739254574116E+01   4.353823316425137E+01   4.408587672027271E+01
   4.464040878422509E+01   4.520191600287154E+01   4.577048611285753E+01
   4.634620795441936E+01   4.692917148526615E+01   4.751946779463574E+01
   4.811718911752727E+01   4.872242884911368E+01   4.933528155933422E+01
   4.995584300767183E+01   5.058421015811542E+01   5.122048119431050E+01
   5.186475553490116E+01   5.251713384906373E+01   5.317771807223716E+01
   5.384661142205036E+01   5.452391841444995E+01   5.520974488003168E+01
   5.590419798057590E+01   5.660738622579257E+01   5.731941949027573E+01
   5.804040903067141E+01   5.877046750306238E+01   5.950970898057003E+01
   6.025824897117935E+01   6.101620443578686E+01   6.178369380647581E+01
   6.256083700502202E+01   6.334775546163117E+01   6.414457213391321E+01
   6.495141152609443E+01   6.576839970847116E+01   6.659566433710931E+01
   6.743333467378996E+01   6.828154160620755E+01   6.914041766842111E+01
   7.001009706156253E+01   7.089071567480657E+01   7.178241110660296E+01
   7.268532268617722E+01   7.359959149530074E+01   7.452536039033482E+01
   7.546277402455304E+01   7.641197887074267E+01   7.737312324409223E+01
   7.834635732536564E+01   7.933183318436794E+01   8.032970480370729E+01
   8.134012810285412E+01   8.236326096250480E+01   8.339926324925038E+01
   8.444829684055563E+01   8.551052565005376E+01   8.658611565315707E+01
   8.767523491299201E+01   8.877805360665891E+01   8.989474405182204E+01
   9.102548073363572E+01   9.217044033200663E+01   9.332980174920165E+01
   9.450374613780110E+01   9.569245692900377E+01   9.689611986128958E+01
   9.811492300944025E+01   9.934905681392749E+01
    </PP_R>
    <PP_RAB>
   3.352507226303369E-07   3.394676575989053E-07   3.437376350796258E-07
   3.480613222651669E-07   3.524393947404485E-07   3.568725365882018E-07
   3.613614404958598E-07   3.659068078637909E-07   3.705093489148935E-07
   3.751697828055716E-07   3.798888377381019E-07   3.846672510744186E-07
   3.895057694513273E-07   3.944051488971680E-07   3.993661549499477E-07
   4.043895627769552E-07   4.094761572958836E-07   4.146267332974751E-07
   4.198420955697087E-07   4.251230590235507E-07   4.304704488202848E-07
   4.358851005004459E-07   4.413678601143753E-07   4.469195843544172E-07
   4.525411406887798E-07   4.582334074970770E-07   4.639972742075789E-07
   4.698336414361855E-07   4.757434211271500E-07   4.817275366955735E-07
   4.877869231716881E-07   4.939225273469584E-07   5.001353079220198E-07
   5.064262356564769E-07   5.127962935205878E-07   5.192464768488536E-07
   5.257777934955420E-07   5.323912639921675E-07   5.390879217069497E-07
   5.458688130062819E-07   5.527349974182252E-07   5.596875477980631E-07
   5.667275504959376E-07   5.738561055265928E-07   5.810743267412564E-07
   5.883833420016781E-07   5.957842933563628E-07   6.032783372190170E-07
   6.108666445492404E-07   6.185504010354931E-07   6.263308072803580E-07
   6.342090789881406E-07   6.421864471548235E-07   6.502641582604121E-07
   6.584434744637021E-07   6.667256737994909E-07   6.751120503782747E-07
   6.836039145884564E-07   6.922025933010947E-07   7.009094300772341E-07
   7.097257853778343E-07   7.186530367763483E-07   7.276925791739694E-07
   7.368458250175879E-07   7.461142045204905E-07   7.554991658858305E-07
   7.650021755329153E-07   7.746247183263362E-07   7.843682978079811E-07
   7.942344364319686E-07   8.042246758025312E-07   8.143405769148961E-07
   8.245837203991924E-07   8.349557067674290E-07   8.454581566635794E-07
   8.560927111168066E-07   8.668610317978797E-07   8.777648012788138E-07
   8.888057232957733E-07   8.999855230152880E-07   9.113059473038083E-07
   9.227687650006612E-07   9.343757671944332E-07   9.461287675028309E-07
   9.580296023560658E-07   9.700801312837949E-07   9.822822372056803E-07
   9.946378267255982E-07   1.007148830429547E-06   1.019817203187312E-06
   1.032644924457909E-06   1.045633998598885E-06   1.058786455179501E-06
   1.072104349297856E-06   1.085589761902002E-06   1.099244800115096E-06
   1.113071597564638E-06   1.127072314715862E-06   1.141249139209305E-06
   1.155604286202640E-06   1.170139998716789E-06   1.184858547986407E-06
   1.199762233814761E-06   1.214853384933082E-06   1.230134359364438E-06
   1.245607544792173E-06   1.261275358932991E-06   1.277140249914726E-06
   1.293204696658871E-06   1.309471209267915E-06   1.325942329417548E-06
   1.342620630753803E-06   1.359508719295196E-06   1.376609233839919E-06
   1.393924846378165E-06   1.411458262509619E-06   1.429212221866224E-06
   1.447189498540251E-06   1.465392901517754E-06   1.483825275117485E-06
   1.502489499435319E-06   1.521388490794278E-06   1.540525202200213E-06
   1.559902623803213E-06   1.579523783364831E-06   1.599391746731165E-06
   1.619509618311914E-06   1.639880541565442E-06   1.660507699489951E-06
   1.681394315120836E-06   1.702543652034282E-06   1.723959014857210E-06
   1.745643749783632E-06   1.767601245097495E-06   1.789834931702119E-06
   1.812348283656269E-06   1.835144818716992E-06   1.858228098889270E-06
   1.881601730982592E-06   1.905269367174531E-06   1.929234705581392E-06
   1.953501490836057E-06   1.978073514673096E-06   2.002954616521223E-06
   2.028148684103225E-06   2.053659654043419E-06   2.079491512482760E-06
   2.105648295701686E-06   2.132134090750787E-06   2.158953036089431E-06
   2.186109322232388E-06   2.213607192404617E-06   2.241450943204279E-06
   2.269644925274081E-06   2.298193543981089E-06   2.327101260105054E-06
   2.356372590535435E-06   2.386012108977165E-06   2.416024446665299E-06
   2.446414293088667E-06   2.477186396722598E-06   2.508345565770893E-06
   2.539896668917107E-06   2.571844636085298E-06   2.604194459210340E-06
   2.636951193017904E-06   2.670119955814299E-06   2.703705930286190E-06
   2.737714364310419E-06   2.772150571773999E-06   2.807019933404398E-06
   2.842327897610320E-06   2.878079981333005E-06   2.914281770908270E-06
   2.950938922939398E-06   2.988057165180960E-06   3.025642297433835E-06
   3.063700192451401E-06   3.102236796857181E-06   3.141258132074025E-06
   3.180770295264940E-06   3.220779460285820E-06   3.261291878650095E-06
   3.302313880505558E-06   3.343851875623465E-06   3.385912354400051E-06
   3.428501888870708E-06   3.471627133736842E-06   3.515294827405700E-06
   3.559511793043269E-06   3.604284939640378E-06   3.649621263092284E-06
   3.695527847291760E-06   3.742011865235981E-06   3.789080580147334E-06
   3.836741346608274E-06   3.885001611710535E-06   3.933868916218723E-06
   3.983350895748586E-06   4.033455281960106E-06   4.084189903765554E-06
   4.135562688552819E-06   4.187581663424035E-06   4.240254956449861E-06
   4.293590797939505E-06   4.347597521726698E-06   4.402283566471920E-06
   4.457657476980919E-06   4.513727905539866E-06   4.570503613267313E-06
   4.627993471483088E-06   4.686206463094511E-06   4.745151683999954E-06
   4.804838344510103E-06   4.865275770787111E-06   4.926473406301775E-06
   4.988440813309167E-06   5.051187674342700E-06   5.114723793727067E-06
   5.179059099110197E-06   5.244203643014432E-06   5.310167604407309E-06
   5.376961290291994E-06   5.444595137317795E-06   5.513079713410926E-06
   5.582425719425716E-06   5.652643990816704E-06   5.723745499331651E-06
   5.795741354725914E-06   5.868642806498390E-06   5.942461245649219E-06
   6.017208206459716E-06   6.092895368294579E-06   6.169534557426823E-06
   6.247137748885692E-06   6.325717068327714E-06   6.405284793931439E-06
   6.485853358315869E-06   6.567435350483101E-06   6.650043517785409E-06
   6.733690767916978E-06   6.818390170930840E-06   6.904154961281034E-06
   6.990998539890535E-06   7.078934476245195E-06   7.167976510513969E-06
   7.258138555695876E-06   7.349434699793908E-06   7.441879208016321E-06
   7.535486525005609E-06   7.630271277095493E-06   7.726248274596335E-06
   7.823432514109256E-06   7.921839180869401E-06   8.021483651118668E-06
   8.122381494508251E-06   8.224548476531472E-06   8.328000560987121E-06
   8.432753912473872E-06   8.538824898916020E-06   8.646230094120996E-06
   8.754986280369073E-06   8.865110451035615E-06   8.976619813246336E-06
   9.089531790565955E-06   9.203864025720643E-06   9.319634383354760E-06
   9.436860952822219E-06   9.555562051012996E-06   9.675756225215191E-06
   9.797462256013047E-06   9.920699160221503E-06   1.004548619385756E-05
   1.017184285514911E-05   1.029978888758155E-05   1.042934428298276E-05
   1.056052928464685E-05   1.069336439049724E-05   1.082787035628945E-05
   1.096406819885430E-05   1.110197919938180E-05   1.124162490674636E-05
   1.138302714087386E-05   1.152620799615106E-05   1.167118984487793E-05
   1.181799534076326E-05   1.196664742246450E-05   1.211716931717183E-05
   1.226958454423753E-05   1.242391691885094E-05   1.258019055575957E-05
   1.273842987303714E-05   1.289865959589891E-05   1.306090476056506E-05
   1.322519071817267E-05   1.339154313873685E-05   1.355998801516177E-05
   1.373055166730207E-05   1.390326074607540E-05   1.407814223762671E-05
   1.425522346754486E-05   1.443453210513229E-05   1.461609616772843E-05
   1.479994402508744E-05   1.498610440381111E-05   1.517460639183733E-05
   1.536547944298526E-05   1.555875338155747E-05   1.575445840700007E-05
   1.595262509862146E-05   1.615328442037038E-05   1.635646772567409E-05
   1.656220676233744E-05   1.677053367750346E-05   1.698148102267651E-05
   1.719508175880845E-05   1.741136926144887E-05   1.763037732596010E-05
   1.785214017279778E-05   1.807669245285794E-05   1.830406925289116E-05
   1.853430610098507E-05   1.876743897211559E-05   1.900350429376817E-05
   1.924253895162955E-05   1.948458029535140E-05   1.972966614438608E-05
   1.997783479389614E-05   2.022912502073796E-05   2.048357608952073E-05
   2.074122775874167E-05   2.100212028699827E-05   2.126629443927886E-05
   2.153379149333219E-05   2.180465324611718E-05   2.207892202033380E-05
   2.235664067103602E-05   2.263785259232803E-05   2.292260172414465E-05
   2.321093255911705E-05   2.350289014952484E-05   2.379852011433550E-05
   2.409786864633249E-05   2.440098251933296E-05   2.470790909549623E-05
   2.501869633272434E-05   2.533339279215536E-05   2.565204764575135E-05
   2.597471068398148E-05   2.630143232360192E-05   2.663226361553363E-05
   2.696725625283902E-05   2.730646257879923E-05   2.764993559509281E-05
   2.799772897007733E-05   2.834989704717527E-05   2.870649485336514E-05
   2.906757810777966E-05   2.943320323041198E-05   2.980342735093134E-05
   3.017830831760985E-05   3.055790470636124E-05   3.094227582989354E-05
   3.133148174697680E-05   3.172558327182739E-05   3.212464198361044E-05
   3.252872023606152E-05   3.293788116722967E-05   3.335218870934285E-05
   3.377170759879739E-05   3.419650338627334E-05   3.462664244697672E-05
   3.506219199101090E-05   3.550322007387827E-05   3.594979560711399E-05
   3.640198836905379E-05   3.685986901573668E-05   3.732350909194525E-05
   3.779298104238473E-05   3.826835822300244E-05   3.874971491245013E-05
   3.923712632368979E-05   3.973066861574608E-05   4.023041890560625E-05
   4.073645528026985E-05   4.124885680894990E-05   4.176770355542786E-05
   4.229307659056340E-05   4.282505800496215E-05   4.336373092180242E-05
   4.390917950982339E-05   4.446148899647673E-05   4.502074568124337E-05
   4.558703694911812E-05   4.616045128426372E-05   4.674107828383662E-05
   4.732900867198686E-05   4.792433431403372E-05   4.852714823081996E-05
   4.913754461324652E-05   4.975561883698997E-05   5.038146747740533E-05
   5.101518832461592E-05   5.165688039879345E-05   5.230664396563003E-05
   5.296458055200488E-05   5.363079296184832E-05   5.430538529220473E-05
   5.498846294949820E-05   5.568013266600246E-05   5.638050251651782E-05
   5.708968193525846E-05   5.780778173295135E-05   5.853491411415086E-05
   5.927119269477092E-05   6.001673251983765E-05   6.077165008146565E-05
   6.153606333705976E-05   6.231009172774640E-05   6.309385619703634E-05
   6.388747920972249E-05   6.469108477101526E-05   6.550479844591857E-05
   6.632874737884958E-05   6.716306031350545E-05   6.800786761297952E-05
   6.886330128013126E-05   6.972949497821152E-05   7.060658405174788E-05
   7.149470554769253E-05   7.239399823683606E-05   7.330460263549088E-05
   7.422666102744687E-05   7.516031748620373E-05   7.610571789748265E-05
   7.706300998202126E-05   7.803234331865556E-05   7.901386936769143E-05
   8.000774149457097E-05   8.101411499383603E-05   8.203314711339332E-05
   8.306499707908489E-05   8.410982611956710E-05   8.516779749150327E-05
   8.623907650507273E-05   8.732383054980080E-05   8.842222912071405E-05
   8.953444384482382E-05   9.066064850794361E-05   9.180101908184328E-05
   9.295573375174503E-05   9.412497294416548E-05   9.530891935510722E-05
   9.650775797860568E-05   9.772167613563483E-05   9.895086350337642E-05
   1.001955121448576E-04   1.014558165389608E-04   1.027319736108116E-04
   1.040241827625489E-04   1.053326459044817E-04   1.066575674866380E-04
   1.079991545307106E-04   1.093576166624047E-04   1.107331661441920E-04
   1.121260179084777E-04   1.135363895911838E-04   1.149645015657551E-04
   1.164105769775931E-04   1.178748417789231E-04   1.193575247640992E-04
   1.208588576053545E-04   1.223790748889999E-04   1.239184141520789E-04
   1.254771159194831E-04   1.270554237415347E-04   1.286535842320424E-04
   1.302718471068341E-04   1.319104652227764E-04   1.335696946172836E-04
   1.352497945483244E-04   1.369510275349313E-04   1.386736593982195E-04
   1.404179593029225E-04   1.421841997994491E-04   1.439726568664702E-04
   1.457836099540415E-04   1.476173420272672E-04   1.494741396105145E-04
   1.513542928321834E-04   1.532580954700399E-04   1.551858449971197E-04
   1.571378426282084E-04   1.591143933669072E-04   1.611158060532903E-04
   1.631423934121617E-04   1.651944721019197E-04   1.672723627640345E-04
   1.693763900731493E-04   1.715068827878120E-04   1.736641738018437E-04
   1.758486001963545E-04   1.780605032924128E-04   1.803002287043774E-04
   1.825681263939007E-04   1.848645507246106E-04   1.871898605174814E-04
   1.895444191068986E-04   1.919285943974325E-04   1.943427589213227E-04
   1.967872898966876E-04   1.992625692864659E-04   2.017689838580980E-04
   2.043069252439602E-04   2.068767900025574E-04   2.094789796804864E-04
   2.121139008751789E-04   2.147819652984324E-04   2.174835898407410E-04
   2.202191966364359E-04   2.229892131296447E-04   2.257940721410801E-04
   2.286342119356692E-04   2.315100762910332E-04   2.344221145668286E-04
   2.373707817749603E-04   2.403565386506792E-04   2.433798517245714E-04
   2.464411933954558E-04   2.495410420041967E-04   2.526798819084457E-04
   2.558582035583243E-04   2.590765035730565E-04   2.623352848185673E-04
   2.656350564860561E-04   2.689763341715595E-04   2.723596399565140E-04
   2.757855024893317E-04   2.792544570680033E-04   2.827670457237394E-04
   2.863238173056636E-04   2.899253275665724E-04   2.935721392497711E-04
   2.972648221770047E-04   3.010039533374936E-04   3.047901169780884E-04
   3.086239046945616E-04   3.125059155240435E-04   3.164367560386244E-04
   3.204170404401319E-04   3.244473906561013E-04   3.285284364369544E-04
   3.326608154543970E-04   3.368451734010582E-04   3.410821640913800E-04
   3.453724495637779E-04   3.497167001840861E-04   3.541155947503023E-04
   3.585698205986520E-04   3.630800737109861E-04   3.676470588235294E-04
   3.722714895369980E-04   3.769540884280990E-04   3.816955871624359E-04
   3.864967266088326E-04   3.913582569550954E-04   3.962809378252323E-04
   4.012655383981441E-04   4.063128375278119E-04   4.114236238649932E-04
   4.165986959804509E-04   4.218388624897325E-04   4.271449421795160E-04
   4.325177641355482E-04   4.379581678721908E-04   4.434670034635959E-04
   4.490451316765331E-04   4.546934241048843E-04   4.604127633058328E-04
   4.662040429377648E-04   4.720681678999049E-04   4.780060544737101E-04
   4.840186304660375E-04   4.901068353541189E-04   4.962716204323544E-04
   5.025139489609545E-04   5.088347963164529E-04   5.152351501441080E-04
   5.217160105122272E-04   5.282783900684285E-04   5.349233141978681E-04
   5.416518211834617E-04   5.484649623681143E-04   5.553638023189976E-04
   5.623494189938897E-04   5.694229039096077E-04   5.765853623125622E-04
   5.838379133514501E-04   5.911816902521264E-04   5.986178404946732E-04
   6.061475259926943E-04   6.137719232748688E-04   6.214922236687839E-04
   6.293096334870829E-04   6.372253742159546E-04   6.452406827059922E-04
   6.533568113654555E-04   6.615750283559593E-04   6.698966177906287E-04
   6.783228799347431E-04   6.868551314089053E-04   6.954947053947685E-04
   7.042429518433445E-04   7.131012376859393E-04   7.220709470477384E-04
   7.311534814640779E-04   7.403502600994401E-04   7.496627199691970E-04
   7.590923161641498E-04   7.686405220778886E-04   7.783088296370129E-04
   7.880987495342499E-04   7.980118114645010E-04   8.080495643638616E-04
   8.182135766516430E-04   8.285054364754444E-04   8.389267519593029E-04
   8.494791514549650E-04   8.601642837963206E-04   8.709838185570375E-04
   8.819394463114331E-04   8.930328788986355E-04   9.042658496900554E-04
   9.156401138602324E-04   9.271574486610845E-04   9.388196536996055E-04
   9.506285512190613E-04   9.625859863837140E-04   9.746938275671353E-04
   9.869539666441443E-04   9.993683192864135E-04   1.011938825261804E-03
   1.024667448737445E-03   1.037556178586654E-03   1.050607028699693E-03
   1.063822038298442E-03   1.077203272255038E-03   1.090752821414510E-03
   1.104472802921482E-03   1.118365360550980E-03   1.132432665043394E-03
   1.146676914443675E-03   1.161100334444768E-03   1.175705178735395E-03
   1.190493729352192E-03   1.205468297036277E-03   1.220631221594320E-03
   1.235984872264129E-03   1.251531648084860E-03   1.267273978271867E-03
   1.283214322596265E-03   1.299355171769292E-03   1.315699047831463E-03
   1.332248504546669E-03   1.349006127801194E-03   1.365974536007759E-03
   1.383156380514674E-03   1.400554346020097E-03   1.418171150991534E-03
   1.436009548090609E-03   1.454072324603153E-03   1.472362302874754E-03
   1.490882340751719E-03   1.509635332027651E-03   1.528624206895592E-03
   1.547851932405868E-03   1.567321512929714E-03   1.587035990628693E-03
   1.606998445930058E-03   1.627211998008065E-03   1.647679805271347E-03
   1.668405065856437E-03   1.689391018127460E-03   1.710640941182158E-03
   1.732158155364244E-03   1.753946022782207E-03   1.776007947834663E-03
   1.798347377742282E-03   1.820967803086439E-03   1.843872758354619E-03
   1.867065822492677E-03   1.890550619464078E-03   1.914330818816121E-03
   1.938410136253342E-03   1.962792334218081E-03   1.987481222478370E-03
   2.012480658723237E-03   2.037794549165450E-03   2.063426849151895E-03
   2.089381563781599E-03   2.115662748531519E-03   2.142274509890250E-03
   2.169221005999639E-03   2.196506447304530E-03   2.224135097210644E-03
   2.252111272750731E-03   2.280439345259144E-03   2.309123741054840E-03
   2.338168942133026E-03   2.367579486865465E-03   2.397359970709600E-03
   2.427515046926630E-03   2.458049427308556E-03   2.488967882914439E-03
   2.520275244815876E-03   2.551976404851851E-03   2.584076316393125E-03
   2.616579995116176E-03   2.649492519786936E-03   2.682819033054352E-03
   2.716564742253916E-03   2.750734920221355E-03   2.785334906116489E-03
   2.820370106257511E-03   2.855845994965727E-03   2.891768115420916E-03
   2.928142080527493E-03   2.964973573791498E-03   3.002268350208694E-03
   3.040032237163778E-03   3.078271135340906E-03   3.116991019645729E-03
   3.156197940138933E-03   3.195898022981619E-03   3.236097471392505E-03
   3.276802566617183E-03   3.318019668909607E-03   3.359755218525856E-03
   3.402015736730474E-03   3.444807826815418E-03   3.488138175131811E-03
   3.532013552134747E-03   3.576440813441135E-03   3.621426900900949E-03
   3.666978843681885E-03   3.713103759367667E-03   3.759808855070225E-03
   3.807101428555771E-03   3.854988869385137E-03   3.903478660068387E-03
   3.952578377233954E-03   4.002295692812555E-03   4.052638375235884E-03
   4.103614290650501E-03   4.155231404146908E-03   4.207497781004089E-03
   4.260421587949780E-03   4.314011094436476E-03   4.368274673933601E-03
   4.423220805235860E-03   4.478858073788042E-03   4.535195173026568E-03
   4.592240905737799E-03   4.650004185433538E-03   4.708494037743766E-03
   4.767719601826887E-03   4.827690131797805E-03   4.888414998173819E-03
   4.949903689338864E-03   5.012165813026017E-03   5.075211097818785E-03
   5.139049394671195E-03   5.203690678446988E-03   5.269145049478291E-03
   5.335422735143723E-03   5.402534091466522E-03   5.470489604732665E-03
   5.539299893129335E-03   5.608975708404111E-03   5.679527937544863E-03
   5.750967604480945E-03   5.823305871805674E-03   5.896554042520469E-03
   5.970723561801051E-03   6.045826018785685E-03   6.121873148386083E-03
   6.198876833120974E-03   6.276849104972743E-03   6.355802147267524E-03
   6.435748296578784E-03   6.516700044655016E-03   6.598670040371566E-03
   6.681671091707010E-03   6.765716167744512E-03   6.850818400698168E-03
   6.936991087965031E-03   7.024247694202819E-03   7.112601853433756E-03
   7.202067371175007E-03   7.292658226595711E-03   7.384388574701349E-03
   7.477272748545451E-03   7.571325261469131E-03   7.666560809368910E-03
   7.762994272992878E-03   7.860640720265936E-03   7.959515408644145E-03
   8.059633787498703E-03   8.161011500530025E-03   8.263664388211994E-03
   8.367608490267180E-03   8.472860048173015E-03   8.579435507699530E-03
   8.687351521479137E-03   8.796624951608512E-03   8.907272872283448E-03
   9.019312572466682E-03   9.132761558589282E-03   9.247637557286177E-03
   9.363958518165844E-03   9.481742616615097E-03   9.601008256638968E-03
   9.721774073736325E-03   9.844058937811824E-03   9.967881956124231E-03
   1.009326247627210E-02   1.022022008921680E-02   1.034877463234362E-02
   1.047894619256151E-02   1.061075510944156E-02   1.074422197839520E-02
   1.087936765389227E-02   1.101621325271950E-02   1.115478015728013E-02
   1.129509001893490E-02   1.143716476138517E-02   1.158102658409852E-02
   1.172669796577739E-02   1.187420166787159E-02   1.202356073813462E-02
   1.217479851422511E-02   1.232793862735330E-02   1.248300500597337E-02
   1.264002187952251E-02   1.279901378220664E-02   1.296000555683402E-02
   1.312302235869703E-02   1.328808965950255E-02   1.345523325135222E-02
   1.362447925077228E-02   1.379585410279449E-02   1.396938458508816E-02
   1.414509781214417E-02   1.432302123951177E-02   1.450318266808844E-02
   1.468561024846395E-02   1.487033248531891E-02   1.505737824187861E-02
   1.524677674442309E-02   1.543855758685368E-02   1.563275073531720E-02
   1.582938653288822E-02   1.602849570431011E-02   1.623010936079606E-02
   1.643425900489002E-02   1.664097653538925E-02   1.685029425232850E-02
   1.706224486202683E-02   1.727686148219829E-02   1.749417764712636E-02
   1.771422731290398E-02   1.793704486273914E-02   1.816266511232728E-02
   1.839112331529148E-02   1.862245516869069E-02   1.885669681859769E-02
   1.909388486574687E-02   1.933405637125311E-02   1.957724886240283E-02
   1.982350033851749E-02   2.007284927689126E-02   2.032533463880312E-02
   2.058099587560447E-02   2.083987293488378E-02   2.110200626670818E-02
   2.136743682994411E-02   2.163620609865716E-02   2.190835606859227E-02
   2.218392926373605E-02   2.246296874296080E-02   2.274551810675290E-02
   2.303162150402534E-02   2.332132363901594E-02   2.361466977827278E-02
   2.391170575772684E-02   2.421247798985430E-02   2.451703347092839E-02
   2.482541978836256E-02   2.513768512814640E-02   2.545387828237450E-02
   2.577404865687054E-02   2.609824627890696E-02   2.642652180502172E-02
   2.675892652893373E-02   2.709551238955730E-02   2.743633197911799E-02
   2.778143855137010E-02   2.813088602991761E-02   2.848472901664006E-02
   2.884302280022396E-02   2.920582336480196E-02   2.957318739870049E-02
   2.994517230329712E-02   3.032183620199012E-02   3.070323794927989E-02
   3.108943713996544E-02   3.148049411845612E-02   3.187646998820033E-02
   3.227742662123343E-02   3.268342666784498E-02   3.309453356636832E-02
   3.351081155309282E-02   3.393232567230069E-02   3.435914178643079E-02
   3.479132658636917E-02   3.522894760187018E-02   3.567207321210789E-02
   3.612077265636032E-02   3.657511604482866E-02   3.703517436959159E-02
   3.750101951569842E-02   3.797272427240105E-02   3.845036234452729E-02
   3.893400836399780E-02   3.942373790148698E-02   3.991962747823147E-02
   4.042175457798663E-02   4.093019765913322E-02   4.144503616693726E-02
   4.196635054596289E-02   4.249422225264252E-02   4.302873376800438E-02
   4.356996861056005E-02   4.411801134935499E-02   4.467294761718198E-02
   4.523486412396197E-02   4.580384867029245E-02   4.637999016116624E-02
   4.696337861986362E-02   4.755410520201801E-02   4.815226220985978E-02
   4.875794310663848E-02   4.937124253122629E-02   4.999225631290630E-02
   5.062108148634512E-02   5.125781630675558E-02   5.190256026524890E-02
   5.255541410438015E-02   5.321647983389013E-02   5.388586074664382E-02
   5.456366143477081E-02   5.524998780600772E-02   5.594494710024618E-02
   5.664864790629004E-02   5.736120017882174E-02   5.808271525558363E-02
   5.881330587477451E-02   5.955308619266484E-02   6.030217180143456E-02
   6.106067974723386E-02   6.182872854847259E-02   6.260643821433866E-02
   6.339393026354939E-02   6.419132774333987E-02   6.499875524868841E-02
   6.581633894178554E-02   6.664420657174683E-02   6.748248749457353E-02
   6.833131269336556E-02   6.919081479878696E-02   7.006112810979044E-02
   7.094238861460170E-02   7.183473401196726E-02   7.273830373267123E-02
   7.365323896132052E-02   7.457968265840621E-02   7.551777958264094E-02
   7.646767631357744E-02   7.742952127451277E-02   7.840346475567871E-02
   7.938965893772577E-02   8.038825791550154E-02   8.139941772212764E-02
   8.242329635338136E-02   8.346005379238167E-02   8.450985203458782E-02
   8.557285511311113E-02   8.664922912434508E-02   8.773914225391907E-02
   8.884276480297676E-02   8.996026921478691E-02   9.109183010168763E-02
   9.223762427236934E-02   9.339783075950268E-02   9.457263084771139E-02
   9.576220810189956E-02   9.696674839593356E-02   9.818643994168462E-02
   9.942147331843861E-02   1.006720415026730E-01   1.019383398982110E-01
   1.032205663667535E-01   1.045189212587945E-01   1.058336074449277E-01
   1.071648303475442E-01   1.085127979729310E-01   1.098777209437723E-01
   1.112598125320588E-01   1.126592886924135E-01   1.140763680958332E-01
   1.155112721638582E-01   1.169642251031684E-01   1.184354539406164E-01
   1.199251885587016E-01   1.214336617314886E-01   1.229611091609798E-01
   1.245077695139440E-01   1.260738844592075E-01   1.276596987054173E-01
   1.292654600392753E-01   1.308914193642570E-01   1.325378307398153E-01
   1.342049514210768E-01   1.358930418990402E-01   1.376023659412765E-01
   1.393331906331454E-01   1.410857864195266E-01   1.428604271470768E-01
   1.446573901070208E-01   1.464769560784765E-01   1.483194093723291E-01
   1.501850378756546E-01   1.520741330967018E-01   1.539869902104428E-01
   1.559239081046929E-01   1.578851894268140E-01   1.598711406310032E-01
   1.618820720261761E-01   1.639182978244550E-01   1.659801361902631E-01
   1.680679092900401E-01   1.701819433425807E-01   1.723225686700063E-01
   1.744901197493798E-01   1.766849352649667E-01   1.789073581611571E-01
   1.811577356960503E-01   1.834364194957140E-01   1.857437656091285E-01
   1.880801345638178E-01   1.904458914221846E-01   1.928414058385516E-01
   1.952670521169195E-01   1.977232092694549E-01   2.002102610757094E-01
   2.027285961425878E-01   2.052786079650684E-01   2.078606949876858E-01
   2.104752606667911E-01   2.131227135335906E-01   2.158034672579812E-01
   2.185179407131869E-01   2.212665580412067E-01   2.240497487190912E-01
   2.268679476260455E-01   2.297215951113827E-01   2.326111370633287E-01
   2.355370249786915E-01   2.384997160334114E-01   2.414996731539926E-01
   2.445373650898389E-01   2.476132664864961E-01   2.507278579598146E-01
   2.538816261710494E-01   2.570750639028992E-01   2.603086701365071E-01
   2.635829501294264E-01   2.668984154945667E-01   2.702555842801375E-01
   2.736549810505908E-01   2.770971369685887E-01   2.805825898779969E-01
   2.841118843879228E-01   2.876855719578149E-01   2.913042109836258E-01
   2.949683668850658E-01   2.986786121939500E-01   3.024355266436554E-01
   3.062396972597091E-01   3.100917184515087E-01   3.139921921052028E-01
   3.179417276777360E-01   3.219409422920758E-01   3.259904608336431E-01
   3.300909160479479E-01   3.342429486394604E-01   3.384472073717210E-01
   3.427043491687090E-01   3.470150392174926E-01   3.513799510721609E-01
   3.557997667590723E-01   3.602751768834207E-01   3.648068807371420E-01
   3.693955864081845E-01   3.740420108911439E-01   3.787468801992993E-01
   3.835109294780530E-01   3.883349031197960E-01   3.932195548802258E-01
   3.981656479961163E-01   4.031739553045803E-01   4.082452593638254E-01
   4.133803525754267E-01   4.185800373081475E-01   4.238451260233047E-01
   4.291764414017226E-01   4.345748164722765E-01   4.400410947420528E-01
   4.455761303281539E-01   4.511807880911496E-01   4.568559437702191E-01
   4.626024841199841E-01   4.684213070490640E-01   4.743133217603818E-01
   4.802794488932216E-01   4.863206206670874E-01   4.924377810273600E-01
   4.986318857927898E-01   5.049039028048502E-01   5.112548120789577E-01
   5.176856059576087E-01   5.241972892654311E-01   5.307908794661877E-01
   5.374674068217645E-01   5.442279145531421E-01   5.510734590034089E-01
   5.580051098028136E-01   5.650239500358943E-01   5.721310764107191E-01
   5.793275994302419E-01   5.866146435658269E-01   5.939933474329468E-01
   6.014648639690909E-01   6.090303606139210E-01   6.166910194916778E-01
   6.244480375958980E-01   6.323026269764428E-01   6.402560149288813E-01
   6.483094441862646E-01   6.564641731132967E-01   6.647214759029645E-01
   6.730826427756296E-01   6.815489801806245E-01   6.901218110003960E-01
   6.988024747571988E-01   7.075923278224071E-01   7.164927436284466E-01
   7.255051128833927E-01   7.346308437882798E-01   7.438713622571255E-01
   7.532281121397419E-01   7.627025554473358E-01   7.722961725809476E-01
   7.820104625627753E-01   7.918469432703897E-01   8.018071516739153E-01
   8.118926440761804E-01   8.221049963558896E-01   8.324458042138665E-01
   8.429166834223745E-01   8.535192700775944E-01   8.642552208552639E-01
   8.751262132695317E-01   8.861339459350822E-01   8.972801388325371E-01
   9.085665335772153E-01   9.199948936912593E-01   9.315670048791853E-01
   9.432846753069131E-01   9.551497358842834E-01   9.671640405511529E-01
   9.793294665670707E-01   9.916479148045992E-01   1.004121310046341E+00
   1.016751601285677E+00   1.029540762031310E+00   1.042490790615630E+00
   1.055603710506945E+00   1.068881570625672E+00   1.082326445664463E+00
   1.095940436412400E+00   1.109725670083237E+00   1.123684300647776E+00
   1.137818509170446E+00   1.152130504150083E+00   1.166622521865021E+00
   1.181296826722514E+00   1.196155711612547E+00   1.211201498266120E+00
   1.226436537618003E+00   1.241863210174094E+00
    </PP_RAB>
  </PP_MESH>
  <PP_NLCC size="1211">
   4.636140372233384E-01   4.636140372143915E-01   4.636140372052179E-01
   4.636140371958121E-01   4.636140371861684E-01   4.636140371762804E-01
   4.636140371661420E-01   4.636140371557472E-01   4.636140371450893E-01
   4.636140371341613E-01   4.636140371229568E-01   4.636140371114686E-01
   4.636140370996896E-01   4.636140370876123E-01   4.636140370752295E-01
   4.636140370625331E-01   4.636140370495153E-01   4.636140370361680E-01
   4.636140370224827E-01   4.636140370084510E-01   4.636140369940641E-01
   4.636140369793131E-01   4.636140369641886E-01   4.636140369486811E-01
   4.636140369327812E-01   4.636140369164786E-01   4.636140368997635E-01
   4.636140368826252E-01   4.636140368650529E-01   4.636140368470359E-01
   4.636140368285627E-01   4.636140368096219E-01   4.636140367902017E-01
   4.636140367702897E-01   4.636140367498738E-01   4.636140367289410E-01
   4.636140367074783E-01   4.636140366854722E-01   4.636140366629090E-01
   4.636140366397747E-01   4.636140366160548E-01   4.636140365917343E-01
   4.636140365667982E-01   4.636140365412307E-01   4.636140365150161E-01
   4.636140364881379E-01   4.636140364605794E-01   4.636140364323229E-01
   4.636140364033512E-01   4.636140363736462E-01   4.636140363431891E-01
   4.636140363119611E-01   4.636140362799425E-01   4.636140362471133E-01
   4.636140362134531E-01   4.636140361789406E-01   4.636140361435547E-01
   4.636140361072727E-01   4.636140360700725E-01   4.636140360319304E-01
   4.636140359928227E-01   4.636140359527251E-01   4.636140359116124E-01
   4.636140358694589E-01   4.636140358262382E-01   4.636140357819234E-01
   4.636140357364869E-01   4.636140356899001E-01   4.636140356421339E-01
   4.636140355931586E-01   4.636140355429434E-01   4.636140354914569E-01
   4.636140354386672E-01   4.636140353845410E-01   4.636140353290445E-01
   4.636140352721433E-01   4.636140352138016E-01   4.636140351539829E-01
   4.636140350926500E-01   4.636140350297643E-01   4.636140349652868E-01
   4.636140348991771E-01   4.636140348313935E-01   4.636140347618942E-01
   4.636140346906355E-01   4.636140346175727E-01   4.636140345426604E-01
   4.636140344658519E-01   4.636140343870987E-01   4.636140343063521E-01
   4.636140342235611E-01   4.636140341386743E-01   4.636140340516387E-01
   4.636140339623997E-01   4.636140338709018E-01   4.636140337770874E-01
   4.636140336808982E-01   4.636140335822739E-01   4.636140334811528E-01
   4.636140333774719E-01   4.636140332711664E-01   4.636140331621698E-01
   4.636140330504138E-01   4.636140329358286E-01   4.636140328183428E-01
   4.636140326978829E-01   4.636140325743733E-01   4.636140324477374E-01
   4.636140323178954E-01   4.636140321847665E-01   4.636140320482674E-01
   4.636140319083130E-01   4.636140317648155E-01   4.636140316176853E-01
   4.636140314668306E-01   4.636140313121568E-01   4.636140311535676E-01
   4.636140309909635E-01   4.636140308242433E-01   4.636140306533024E-01
   4.636140304780342E-01   4.636140302983289E-01   4.636140301140745E-01
   4.636140299251557E-01   4.636140297314543E-01   4.636140295328493E-01
   4.636140293292167E-01   4.636140291204290E-01   4.636140289063559E-01
   4.636140286868636E-01   4.636140284618147E-01   4.636140282310686E-01
   4.636140279944813E-01   4.636140277519047E-01   4.636140275031871E-01
   4.636140272481735E-01   4.636140269867039E-01   4.636140267186153E-01
   4.636140264437398E-01   4.636140261619061E-01   4.636140258729376E-01
   4.636140255766538E-01   4.636140252728695E-01   4.636140249613950E-01
   4.636140246420354E-01   4.636140243145913E-01   4.636140239788578E-01
   4.636140236346252E-01   4.636140232816782E-01   4.636140229197965E-01
   4.636140225487536E-01   4.636140221683178E-01   4.636140217782510E-01
   4.636140213783098E-01   4.636140209682440E-01   4.636140205477974E-01
   4.636140201167071E-01   4.636140196747037E-01   4.636140192215109E-01
   4.636140187568455E-01   4.636140182804170E-01   4.636140177919276E-01
   4.636140172910722E-01   4.636140167775375E-01   4.636140162510025E-01
   4.636140157111382E-01   4.636140151576075E-01   4.636140145900638E-01
   4.636140140081528E-01   4.636140134115107E-01   4.636140127997643E-01
   4.636140121725316E-01   4.636140115294204E-01   4.636140108700288E-01
   4.636140101939446E-01   4.636140095007453E-01   4.636140087899976E-01
   4.636140080612572E-01   4.636140073140686E-01   4.636140065479648E-01
   4.636140057624671E-01   4.636140049570843E-01   4.636140041313133E-01
   4.636140032846376E-01   4.636140024165284E-01   4.636140015264428E-01
   4.636140006138246E-01   4.636139996781034E-01   4.636139987186943E-01
   4.636139977349977E-01   4.636139967263985E-01   4.636139956922668E-01
   4.636139946319558E-01   4.636139935448028E-01   4.636139924301284E-01
   4.636139912872361E-01   4.636139901154110E-01   4.636139889139213E-01
   4.636139876820156E-01   4.636139864189242E-01   4.636139851238574E-01
   4.636139837960058E-01   4.636139824345396E-01   4.636139810386076E-01
   4.636139796073374E-01   4.636139781398344E-01   4.636139766351814E-01
   4.636139750924381E-01   4.636139735106399E-01   4.636139718887985E-01
   4.636139702258998E-01   4.636139685209048E-01   4.636139667727475E-01
   4.636139649803354E-01   4.636139631425482E-01   4.636139612582371E-01
   4.636139593262247E-01   4.636139573453029E-01   4.636139553142340E-01
   4.636139532317481E-01   4.636139510965441E-01   4.636139489072874E-01
   4.636139466626089E-01   4.636139443611064E-01   4.636139420013410E-01
   4.636139395818379E-01   4.636139371010848E-01   4.636139345575312E-01
   4.636139319495872E-01   4.636139292756226E-01   4.636139265339665E-01
   4.636139237229051E-01   4.636139208406812E-01   4.636139178854936E-01
   4.636139148554950E-01   4.636139117487917E-01   4.636139085634418E-01
   4.636139052974544E-01   4.636139019487882E-01   4.636138985153501E-01
   4.636138949949941E-01   4.636138913855199E-01   4.636138876846715E-01
   4.636138838901355E-01   4.636138799995408E-01   4.636138760104550E-01
   4.636138719203851E-01   4.636138677267745E-01   4.636138634270022E-01
   4.636138590183809E-01   4.636138544981547E-01   4.636138498634984E-01
   4.636138451115153E-01   4.636138402392352E-01   4.636138352436129E-01
   4.636138301215258E-01   4.636138248697725E-01   4.636138194850705E-01
   4.636138139640542E-01   4.636138083032727E-01   4.636138024991878E-01
   4.636137965481720E-01   4.636137904465055E-01   4.636137841903748E-01
   4.636137777758695E-01   4.636137711989802E-01   4.636137644555960E-01
   4.636137575415027E-01   4.636137504523782E-01   4.636137431837917E-01
   4.636137357312003E-01   4.636137280899456E-01   4.636137202552519E-01
   4.636137122222221E-01   4.636137039858352E-01   4.636136955409434E-01
   4.636136868822682E-01   4.636136780043978E-01   4.636136689017831E-01
   4.636136595687347E-01   4.636136499994195E-01   4.636136401878559E-01
   4.636136301279116E-01   4.636136198132988E-01   4.636136092375706E-01
   4.636135983941168E-01   4.636135872761599E-01   4.636135758767507E-01
   4.636135641887644E-01   4.636135522048956E-01   4.636135399176539E-01
   4.636135273193595E-01   4.636135144021382E-01   4.636135011579160E-01
   4.636134875784153E-01   4.636134736551482E-01   4.636134593794122E-01
   4.636134447422846E-01   4.636134297346168E-01   4.636134143470286E-01
   4.636133985699021E-01   4.636133823933761E-01   4.636133658073402E-01
   4.636133488014272E-01   4.636133313650082E-01   4.636133134871844E-01
   4.636132951567821E-01   4.636132763623442E-01   4.636132570921234E-01
   4.636132373340754E-01   4.636132170758507E-01   4.636131963047876E-01
   4.636131750079033E-01   4.636131531718866E-01   4.636131307830894E-01
   4.636131078275181E-01   4.636130842908248E-01   4.636130601582984E-01
   4.636130354148552E-01   4.636130100450300E-01   4.636129840329659E-01
   4.636129573624044E-01   4.636129300166761E-01   4.636129019786884E-01
   4.636128732309177E-01   4.636128437553949E-01   4.636128135336976E-01
   4.636127825469362E-01   4.636127507757428E-01   4.636127182002599E-01
   4.636126848001269E-01   4.636126505544674E-01   4.636126154418774E-01
   4.636125794404102E-01   4.636125425275642E-01   4.636125046802674E-01
   4.636124658748647E-01   4.636124260871015E-01   4.636123852921091E-01
   4.636123434643900E-01   4.636123005778006E-01   4.636122566055354E-01
   4.636122115201108E-01   4.636121652933472E-01   4.636121178963515E-01
   4.636120692994997E-01   4.636120194724171E-01   4.636119683839610E-01
   4.636119160021992E-01   4.636118622943922E-01   4.636118072269712E-01
   4.636117507655177E-01   4.636116928747418E-01   4.636116335184604E-01
   4.636115726595746E-01   4.636115102600457E-01   4.636114462808728E-01
   4.636113806820673E-01   4.636113134226286E-01   4.636112444605178E-01
   4.636111737526318E-01   4.636111012547772E-01   4.636110269216406E-01
   4.636109507067624E-01   4.636108725625065E-01   4.636107924400314E-01
   4.636107102892585E-01   4.636106260588421E-01   4.636105396961360E-01
   4.636104511471621E-01   4.636103603565754E-01   4.636102672676302E-01
   4.636101718221436E-01   4.636100739604608E-01   4.636099736214162E-01
   4.636098707422961E-01   4.636097652587990E-01   4.636096571049960E-01
   4.636095462132891E-01   4.636094325143693E-01   4.636093159371725E-01
   4.636091964088360E-01   4.636090738546529E-01   4.636089481980253E-01
   4.636088193604152E-01   4.636086872612977E-01   4.636085518181089E-01
   4.636084129461949E-01   4.636082705587590E-01   4.636081245668071E-01
   4.636079748790928E-01   4.636078214020592E-01   4.636076640397814E-01
   4.636075026939065E-01   4.636073372635919E-01   4.636071676454416E-01
   4.636069937334434E-01   4.636068154189001E-01   4.636066325903644E-01
   4.636064451335668E-01   4.636062529313459E-01   4.636060558635739E-01
   4.636058538070827E-01   4.636056466355860E-01   4.636054342196008E-01
   4.636052164263668E-01   4.636049931197625E-01   4.636047641602211E-01
   4.636045294046425E-01   4.636042887063050E-01   4.636040419147719E-01
   4.636037888757994E-01   4.636035294312384E-01   4.636032634189375E-01
   4.636029906726399E-01   4.636027110218808E-01   4.636024242918803E-01
   4.636021303034343E-01   4.636018288728024E-01   4.636015198115936E-01
   4.636012029266479E-01   4.636008780199156E-01   4.636005448883345E-01
   4.636002033237019E-01   4.635998531125451E-01   4.635994940359879E-01
   4.635991258696138E-01   4.635987483833257E-01   4.635983613412024E-01
   4.635979645013508E-01   4.635975576157551E-01   4.635971404301216E-01
   4.635967126837202E-01   4.635962741092211E-01   4.635958244325276E-01
   4.635953633726056E-01   4.635948906413073E-01   4.635944059431915E-01
   4.635939089753388E-01   4.635933994271625E-01   4.635928769802152E-01
   4.635923413079882E-01   4.635917920757094E-01   4.635912289401326E-01
   4.635906515493242E-01   4.635900595424428E-01   4.635894525495136E-01
   4.635888301911980E-01   4.635881920785557E-01   4.635875378128027E-01
   4.635868669850611E-01   4.635861791761050E-01   4.635854739560971E-01
   4.635847508843217E-01   4.635840095089085E-01   4.635832493665504E-01
   4.635824699822146E-01   4.635816708688453E-01   4.635808515270600E-01
   4.635800114448371E-01   4.635791500971966E-01   4.635782669458717E-01
   4.635773614389733E-01   4.635764330106444E-01   4.635754810807080E-01
   4.635745050543031E-01   4.635735043215150E-01   4.635724782569928E-01
   4.635714262195598E-01   4.635703475518133E-01   4.635692415797134E-01
   4.635681076121625E-01   4.635669449405737E-01   4.635657528384282E-01
   4.635645305608220E-01   4.635632773440008E-01   4.635619924048828E-01
   4.635606749405695E-01   4.635593241278460E-01   4.635579391226651E-01
   4.635565190596215E-01   4.635550630514116E-01   4.635535701882794E-01
   4.635520395374477E-01   4.635504701425380E-01   4.635488610229712E-01
   4.635472111733572E-01   4.635455195628668E-01   4.635437851345883E-01
   4.635420068048681E-01   4.635401834626339E-01   4.635383139687027E-01
   4.635363971550678E-01   4.635344318241722E-01   4.635324167481599E-01
   4.635303506681104E-01   4.635282322932398E-01   4.635260603001825E-01
   4.635238333319215E-01   4.635215499973221E-01   4.635192088698920E-01
   4.635168084871812E-01   4.635143473496018E-01   4.635118239197781E-01
   4.635092366213393E-01   4.635065838380091E-01   4.635038639128468E-01
   4.635010751467238E-01   4.634982157977272E-01   4.634952840797510E-01
   4.634922781616161E-01   4.634891961657980E-01   4.634860361672255E-01
   4.634827961922702E-01   4.634794742172564E-01   4.634760681673584E-01
   4.634725759153561E-01   4.634689952802079E-01   4.634653240256246E-01
   4.634615598588609E-01   4.634577004291872E-01   4.634537433263780E-01
   4.634496860793613E-01   4.634455261545171E-01   4.634412609540903E-01
   4.634368878148452E-01   4.634324040060459E-01   4.634278067279713E-01
   4.634230931101623E-01   4.634182602095326E-01   4.634133050086215E-01
   4.634082244137178E-01   4.634030152529048E-01   4.633976742740322E-01
   4.633921981428634E-01   4.633865834407928E-01   4.633808266628437E-01
   4.633749242155288E-01   4.633688724144320E-01   4.633626674821531E-01
   4.633563055457636E-01   4.633497826345235E-01   4.633430946773072E-01
   4.633362375002348E-01   4.633292068239299E-01   4.633219982608145E-01
   4.633146073126218E-01   4.633070293673876E-01   4.632992596967316E-01
   4.632912934527738E-01   4.632831256651851E-01   4.632747512381896E-01
   4.632661649473243E-01   4.632573614361539E-01   4.632483352130368E-01
   4.632390806476811E-01   4.632295919677007E-01   4.632198632549000E-01
   4.632098884417736E-01   4.631996613076538E-01   4.631891754748992E-01
   4.631784244048429E-01   4.631674013939111E-01   4.631560995693775E-01
   4.631445118850431E-01   4.631326311170694E-01   4.631204498593089E-01
   4.631079605188326E-01   4.630951553111535E-01   4.630820262556420E-01
   4.630685651702381E-01   4.630547636667156E-01   4.630406131452923E-01
   4.630261047894808E-01   4.630112295605155E-01   4.629959781918245E-01
   4.629803411833704E-01   4.629643087957178E-01   4.629478710440412E-01
   4.629310176920438E-01   4.629137382455406E-01   4.628960219461145E-01
   4.628778577643905E-01   4.628592343933359E-01   4.628401402412959E-01
   4.628205634247671E-01   4.628004917612629E-01   4.627799127617130E-01
   4.627588136228283E-01   4.627371812192678E-01   4.627150020955477E-01
   4.626922624578616E-01   4.626689481655556E-01   4.626450447225083E-01
   4.626205372682795E-01   4.625954105689756E-01   4.625696490079595E-01
   4.625432365763363E-01   4.625161568631259E-01   4.624883930452933E-01
   4.624599278774680E-01   4.624307436814342E-01   4.624008223353772E-01
   4.623701452628437E-01   4.623386934214374E-01   4.623064472912664E-01
   4.622733868630767E-01   4.622394916260993E-01   4.622047405556106E-01
   4.621691121002093E-01   4.621325841687720E-01   4.620951341170694E-01
   4.620567387340601E-01   4.620173742279373E-01   4.619770162116985E-01
   4.619356396884973E-01   4.618932190365588E-01   4.618497279937809E-01
   4.618051396419194E-01   4.617594263904581E-01   4.617125599600406E-01
   4.616645113655101E-01   4.616152508985814E-01   4.615647481100748E-01
   4.615129717917136E-01   4.614598899575153E-01   4.614054698247542E-01
   4.613496777944185E-01   4.612924794312760E-01   4.612338394433989E-01
   4.611737216612872E-01   4.611120890164289E-01   4.610489035194177E-01
   4.609841262374947E-01   4.609177172716440E-01   4.608496357331002E-01
   4.607798397193202E-01   4.607082862894282E-01   4.606349314390570E-01
   4.605597300746307E-01   4.604826359870688E-01   4.604036018248424E-01
   4.603225790664914E-01   4.602395179924347E-01   4.601543676561947E-01
   4.600670758549694E-01   4.599775890995043E-01   4.598858525833281E-01
   4.597918101512879E-01   4.596954042673713E-01   4.595965759818239E-01
   4.594952648975441E-01   4.593914091357258E-01   4.592849453007602E-01
   4.591758084443556E-01   4.590639320288977E-01   4.589492478899981E-01
   4.588316861982401E-01   4.587111754201136E-01   4.585876422781026E-01
   4.584610117099479E-01   4.583312068270182E-01   4.581981488718390E-01
   4.580617571747214E-01   4.579219491094838E-01   4.577786400482846E-01
   4.576317433155110E-01   4.574811701407389E-01   4.573268296107383E-01
   4.571686286205323E-01   4.570064718234645E-01   4.568402615803025E-01
   4.566698979073222E-01   4.564952784234083E-01   4.563162982961453E-01
   4.561328501868454E-01   4.559448241945935E-01   4.557521077992041E-01
   4.555545858031648E-01   4.553521402724975E-01   4.551446504765704E-01
   4.549319928268360E-01   4.547140408144935E-01   4.544906649470823E-01
   4.542617326839875E-01   4.540271083708762E-01   4.537866531730332E-01
   4.535402250076408E-01   4.532876784749642E-01   4.530288647884710E-01
   4.527636317038853E-01   4.524918234471738E-01   4.522132806414880E-01
   4.519278402330679E-01   4.516353354161107E-01   4.513355955566394E-01
   4.510284461153689E-01   4.507137085696064E-01   4.503912003341964E-01
   4.500607346815457E-01   4.497221206607513E-01   4.493751630158653E-01
   4.490196621033273E-01   4.486554138086181E-01   4.482822094621576E-01
   4.478998357545014E-01   4.475080746508965E-01   4.471067033052363E-01
   4.466954939734831E-01   4.462742139266205E-01   4.458426253632087E-01
   4.454004853216115E-01   4.449475455919849E-01   4.444835526281081E-01
   4.440082474591547E-01   4.435213656015001E-01   4.430226369706770E-01
   4.425117857935945E-01   4.419885305211368E-01   4.414525837412845E-01
   4.409036520928818E-01   4.403414361802167E-01   4.397656304885564E-01
   4.391759233008158E-01   4.385719966155352E-01   4.379535260663521E-01
   4.373201808431753E-01   4.366716236152686E-01   4.360075104564695E-01
   4.353274907727811E-01   4.346312072325939E-01   4.339182956997930E-01
   4.331883851700412E-01   4.324410977105261E-01   4.316760484034890E-01
   4.308928452938597E-01   4.300910893413447E-01   4.292703743773323E-01
   4.284302870670005E-01   4.275704068770212E-01   4.266903060492944E-01
   4.257895495811447E-01   4.248676952124531E-01   4.239242934202094E-01
   4.229588874209882E-01   4.219710131819004E-01   4.209601994405586E-01
   4.199259677346601E-01   4.188678324417857E-01   4.177853008300627E-01
   4.166778731203513E-01   4.155450425606552E-01   4.143862955134800E-01
   4.132011115568923E-01   4.119889636000705E-01   4.107493180141629E-01
   4.094816347793004E-01   4.081853676486569E-01   4.068599643304603E-01
   4.055048666889204E-01   4.041195109650489E-01   4.027033280183954E-01
   4.012557435907576E-01   3.997761785929530E-01   3.982640494157857E-01
   3.967187682663637E-01   3.951397435309702E-01   3.935263801657242E-01
   3.918780801162918E-01   3.901942427679618E-01   3.884742654274120E-01
   3.867175438375455E-01   3.849234727267916E-01   3.830914463943028E-01
   3.812208593325142E-01   3.793111068885415E-01   3.773615859659386E-01
   3.753716957683390E-01   3.733408385865347E-01   3.712684206305608E-01
   3.691538529083587E-01   3.669965521526076E-01   3.647959417973101E-01
   3.625514530057121E-01   3.602625257511433E-01   3.579286099523273E-01
   3.555491666647103E-01   3.531236693293147E-01   3.506516050805832E-01
   3.481324761146495E-01   3.455658011193873E-01   3.429511167675476E-01
   3.402879792741955E-01   3.375759660195701E-01   3.348146772383936E-01
   3.320037377765137E-01   3.291427989156467E-01   3.262315402668273E-01
   3.232696717329830E-01   3.202569355408897E-01   3.171931083425183E-01
   3.140780033855722E-01   3.109114727527440E-01   3.076934096689333E-01
   3.044237508753741E-01   3.011024790692565E-01   2.977296254070859E-01
   2.943052720696090E-01   2.908295548857050E-01   2.873026660121915E-01
   2.837248566659725E-01   2.800964399044449E-01   2.764177934494867E-01
   2.726893625497438E-01   2.689116628752887E-01   2.650852834380108E-01
   2.612108895303806E-01   2.572892256744404E-01   2.533211185720449E-01
   2.493074800465307E-01   2.452493099650488E-01   2.411476991298772E-01
   2.370038321260020E-01   2.328189901112302E-01   2.285945535340264E-01
   2.243320047631213E-01   2.200329306118176E-01   2.156990247387114E-01
   2.113320899053330E-01   2.069340400699944E-01   2.025069022958383E-01
   1.980528184498525E-01   1.935740466683145E-01   1.890729625628698E-01
   1.845520601402071E-01   1.800139524070369E-01   1.754613716309207E-01
   1.708971692263365E-01   1.663243152342946E-01   1.617458973628506E-01
   1.571651195549401E-01   1.525853000492370E-01   1.480098688990902E-01
   1.434423649141518E-01   1.388864319890796E-01   1.343458147836308E-01
   1.298243537187296E-01   1.253259792535814E-01   1.208547054097362E-01
   1.164146225092195E-01   1.120098890953979E-01   1.076447230072909E-01
   1.033233915805174E-01   9.905020095106155E-02   9.482948444163158E-02
   9.066559001451267E-02   8.656286677965011E-02   8.252565055217520E-02
   7.855824845979623E-02   7.466492260748346E-02   7.084987281462701E-02
   6.711721844849231E-02   6.347097938725917E-02   5.991505615628654E-02
   5.645320929252287E-02   5.308903800411028E-02   4.982595820531318E-02
   4.666718002081932E-02   4.361568486824310E-02   4.067420224326025E-02
   3.784518634809488E-02   3.513079272107379E-02   3.253285504245403E-02
   3.005286230964931E-02   2.769193659315886E-02   2.545081160270449E-02
   2.332981231116306E-02   2.132883590150969E-02   1.944733431892110E-02
   1.768429872609298E-02   1.603824617429996E-02   1.450720881542237E-02
   1.308872599057783E-02   1.177983953868225E-02   1.057709267269434E-02
   9.476532771893541E-03   8.473718434753965E-03   7.563731128154610E-03
   6.741191754202487E-03   6.000282435193377E-03   5.334773789533306E-03
   4.738080382801879E-03   4.203669841209574E-03   3.725527994962574E-03
   3.298171671517166E-03   2.916606609347957E-03   2.576288255364271E-03
   2.273085293375584E-03   2.003245753886479E-03   1.763365559092239E-03
   1.550359361115848E-03   1.361433536159294E-03   1.194061202228929E-03
   1.045959133342810E-03   9.150664485543337E-04   7.995249596576913E-04
   6.976610670149595E-04   6.079690985072852E-04   5.290959921189711E-04
   4.598272280752670E-04   3.990739217413564E-04   3.458609936270987E-04
   2.993163378099355E-04   2.586609148729138E-04   2.231997000458150E-04
   1.923134216282708E-04   1.654510289613238E-04   1.421228331971083E-04
   1.218942678966844E-04   1.043802200666446E-04   8.923988563033676E-05
   7.617210652513052E-05   6.491114962935284E-05   5.522289055836933E-05
   4.690136803609265E-05   3.976567705345839E-05   3.365717137676824E-05
   2.843694817375480E-05   2.398358959122687E-05   2.019113805242913E-05
   1.696728385176371E-05   1.423174531601441E-05   1.191482338108442E-05
   9.956113907646261E-06   8.303362433825885E-06   6.911447343629373E-06
   5.741478621524482E-06   4.760000471379932E-06   3.938287106571671E-06
   3.251721971970212E-06   2.679251541989532E-06   2.202905655967399E-06
   1.807377106724774E-06   1.479653893912246E-06   1.208698194221531E-06
   9.851666890938998E-07   8.011674304267229E-07   6.500489190567550E-07
   5.262175224489181E-07   4.249797698804051E-07   3.424064381988416E-07
   2.752156815493449E-07   2.206727667908924E-07   1.765042550262270E-07
   1.408247210069018E-07   1.120743282894771E-07   8.896578094320558E-08
   7.043935426653265E-08   5.562486917388114E-08   4.380961937266788E-08
   3.441138876505122E-08   2.695581017790090E-08   2.105741694503632E-08
   1.640382733664343E-08   1.274257955517807E-08   9.870203106041708E-09
   7.623171827352831E-09   5.870435663902870E-09   4.507273252836212E-09
   3.450246333122361E-09   2.633070605648357E-09   2.003246596052174E-09
   1.519318885084193E-09   1.148653289115077E-09   8.656396594760305E-10
   6.502433362301429E-10   4.868413060110668E-10   3.632900986610794E-10
   2.701816989628347E-10   2.002514982981398E-10   1.479087856252739E-10
   1.088656685367827E-10   7.984478888686459E-11   5.834989664128696E-11
   4.248639338231647E-11   3.082145892494717E-11   2.227542098774763E-11
   1.603769556092800E-11   1.150197955288294E-11   8.216472346072885E-12
   5.845785166108245E-12   4.141905255827648E-12   2.922147911734819E-12
   2.052480175713951E-12   1.434957438977108E-12   9.982965589180847E-13
   6.908311846077165E-13   4.752689646274424E-13   3.248060255372466E-13
   2.202595227521949E-13   1.479606295812491E-13   9.821288832971070E-14
   6.417055309961808E-14   4.102042555170892E-14   2.546018802857738E-14
   1.490584649413951E-14   0.000000000000000E+00   0.000000000000000E+00
   0.000000000000000E+00   0.000000000000000E+00   0.000000000000000E+00
   0.000000000000000E+00   0.000000000000000E+00   0.000000000000000E+00
   0.000000000000000E+00   0.000000000000000E+00   0.000000000000000E+00
   0.000000000000000E+00   0.000000000000000E+00   0.000000000000000E+00
   0.000000000000000E+00   0.000000000000000E+00   0.000000000000000E+00
   0.000000000000000E+00   0.000000000000000E+00   0.000000000000000E+00
   0.000000000000000E+00   0.000000000000000E+00   0.000000000000000E+00
   0.000000000000000E+00   0.000000000000000E+00   0.000000000000000E+00
   0.000000000000000E+00   0.000000000000000E+00   0.000000000000000E+00
   0.000000000000000E+00   0.000000000000000E+00   0.000000000000000E+00
   0.000000000000000E+00   0.000000000000000E+00   0.000000000000000E+00
   0.000000000000000E+00   0.000000000000000E+00   0.000000000000000E+00
   0.000000000000000E+00   0.000000000000000E+00   0.000000000000000E+00
   0.000000000000000E+00   0.000000000000000E+00   0.000000000000000E+00
   0.000000000000000E+00   0.000000000000000E+00   0.000000000000000E+00
   0.000000000000000E+00   0.000000000000000E+00   0.000000000000000E+00
   0.000000000000000E+00   0.000000000000000E+00   0.000000000000000E+00
   0.000000000000000E+00   0.000000000000000E+00   0.000000000000000E+00
   0.000000000000000E+00   0.000000000000000E+00   0.000000000000000E+00
   0.000000000000000E+00   0.000000000000000E+00   0.000000000000000E+00
   0.000000000000000E+00   0.000000000000000E+00   0.000000000000000E+00
   0.000000000000000E+00   0.000000000000000E+00   0.000000000000000E+00
   0.000000000000000E+00   0.000000000000000E+00   0.000000000000000E+00
   0.000000000000000E+00   0.000000000000000E+00   0.000000000000000E+00
   0.000000000000000E+00   0.000000000000000E+00   0.000000000000000E+00
   0.000000000000000E+00   0.000000000000000E+00   0.000000000000000E+00
   0.000000000000000E+00   0.000000000000000E+00   0.000000000000000E+00
   0.000000000000000E+00   0.000000000000000E+00   0.000000000000000E+00
   0.000000000000000E+00   0.000000000000000E+00   0.000000000000000E+00
   0.000000000000000E+00   0.000000000000000E+00   0.000000000000000E+00
   0.000000000000000E+00   0.000000000000000E+00   0.000000000000000E+00
   0.000000000000000E+00   0.000000000000000E+00   0.000000000000000E+00
   0.000000000000000E+00   0.000000000000000E+00   0.000000000000000E+00
   0.000000000000000E+00   0.000000000000000E+00   0.000000000000000E+00
   0.000000000000000E+00   0.000000000000000E+00   0.000000000000000E+00
   0.000000000000000E+00   0.000000000000000E+00   0.000000000000000E+00
   0.000000000000000E+00   0.000000000000000E+00   0.000000000000000E+00
   0.000000000000000E+00   0.000000000000000E+00   0.000000000000000E+00
   0.000000000000000E+00   0.000000000000000E+00   0.000000000000000E+00
   0.000000000000000E+00   0.000000000000000E+00   0.000000000000000E+00
   0.000000000000000E+00   0.000000000000000E+00   0.000000000000000E+00
   0.000000000000000E+00   0.000000000000000E+00   0.000000000000000E+00
   0.000000000000000E+00   0.000000000000000E+00   0.000000000000000E+00
   0.000000000000000E+00   0.000000000000000E+00   0.000000000000000E+00
   0.000000000000000E+00   0.000000000000000E+00   0.000000000000000E+00
   0.000000000000000E+00   0.000000000000000E+00   0.000000000000000E+00
   0.000000000000000E+00   0.000000000000000E+00   0.000000000000000E+00
   0.000000000000000E+00   0.000000000000000E+00   0.000000000000000E+00
   0.000000000000000E+00   0.000000000000000E+00   0.000000000000000E+00
   0.000000000000000E+00   0.000000000000000E+00   0.000000000000000E+00
   0.000000000000000E+00   0.000000000000000E+00   0.000000000000000E+00
   0.000000000000000E+00   0.000000000000000E+00   0.000000000000000E+00
   0.000000000000000E+00   0.000000000000000E+00   0.000000000000000E+00
   0.000000000000000E+00   0.000000000000000E+00   0.000000000000000E+00
   0.000000000000000E+00   0.000000000000000E+00   0.000000000000000E+00
   0.000000000000000E+00   0.000000000000000E+00   0.000000000000000E+00
   0.000000000000000E+00   0.000000000000000E+00   0.000000000000000E+00
   0.000000000000000E+00   0.000000000000000E+00   0.000000000000000E+00
   0.000000000000000E+00   0.000000000000000E+00   0.000000000000000E+00
   0.000000000000000E+00   0.000000000000000E+00   0.000000000000000E+00
   0.000000000000000E+00   0.000000000000000E+00   0.000000000000000E+00
   0.000000000000000E+00   0.000000000000000E+00   0.000000000000000E+00
   0.000000000000000E+00   0.000000000000000E+00   0.000000000000000E+00
   0.000000000000000E+00   0.000000000000000E+00   0.000000000000000E+00
   0.000000000000000E+00   0.000000000000000E+00   0.000000000000000E+00
   0.000000000000000E+00   0.000000000000000E+00   0.000000000000000E+00
   0.000000000000000E+00   0.000000000000000E+00   0.000000000000000E+00
   0.000000000000000E+00   0.000000000000000E+00
  </PP_NLCC>
  <PP_LOCAL size="1211">
  -1.698932802683060E+01  -1.698932802683685E+01  -1.698932802684327E+01
  -1.698932802684985E+01  -1.698932802685660E+01  -1.698932802686353E+01
  -1.698932802687063E+01  -1.698932802687791E+01  -1.698932802688538E+01
  -1.698932802689303E+01  -1.698932802690088E+01  -1.698932802690894E+01
  -1.698932802691719E+01  -1.698932802692566E+01  -1.698932802693433E+01
  -1.698932802694323E+01  -1.698932802695235E+01  -1.698932802696170E+01
  -1.698932802697129E+01  -1.698932802698112E+01  -1.698932802699120E+01
  -1.698932802700153E+01  -1.698932802701212E+01  -1.698932802702299E+01
  -1.698932802703413E+01  -1.698932802704555E+01  -1.698932802705725E+01
  -1.698932802706925E+01  -1.698932802708156E+01  -1.698932802709418E+01
  -1.698932802710711E+01  -1.698932802712038E+01  -1.698932802713398E+01
  -1.698932802714792E+01  -1.698932802716222E+01  -1.698932802717687E+01
  -1.698932802719190E+01  -1.698932802720731E+01  -1.698932802722311E+01
  -1.698932802723930E+01  -1.698932802725591E+01  -1.698932802727293E+01
  -1.698932802729039E+01  -1.698932802730829E+01  -1.698932802732664E+01
  -1.698932802734546E+01  -1.698932802736475E+01  -1.698932802738452E+01
  -1.698932802740480E+01  -1.698932802742560E+01  -1.698932802744691E+01
  -1.698932802746877E+01  -1.698932802749118E+01  -1.698932802751415E+01
  -1.698932802753772E+01  -1.698932802756187E+01  -1.698932802758663E+01
  -1.698932802761203E+01  -1.698932802763806E+01  -1.698932802766475E+01
  -1.698932802769212E+01  -1.698932802772017E+01  -1.698932802774895E+01
  -1.698932802777844E+01  -1.698932802780869E+01  -1.698932802783970E+01
  -1.698932802787149E+01  -1.698932802790408E+01  -1.698932802793751E+01
  -1.698932802797178E+01  -1.698932802800691E+01  -1.698932802804293E+01
  -1.698932802807987E+01  -1.698932802811774E+01  -1.698932802815657E+01
  -1.698932802819638E+01  -1.698932802823720E+01  -1.698932802827905E+01
  -1.698932802832196E+01  -1.698932802836596E+01  -1.698932802841107E+01
  -1.698932802845732E+01  -1.698932802850474E+01  -1.698932802855337E+01
  -1.698932802860322E+01  -1.698932802865433E+01  -1.698932802870674E+01
  -1.698932802876048E+01  -1.698932802881557E+01  -1.698932802887206E+01
  -1.698932802892998E+01  -1.698932802898936E+01  -1.698932802905025E+01
  -1.698932802911267E+01  -1.698932802917668E+01  -1.698932802924231E+01
  -1.698932802930960E+01  -1.698932802937859E+01  -1.698932802944933E+01
  -1.698932802952185E+01  -1.698932802959622E+01  -1.698932802967246E+01
  -1.698932802975063E+01  -1.698932802983079E+01  -1.698932802991298E+01
  -1.698932802999723E+01  -1.698932803008362E+01  -1.698932803017220E+01
  -1.698932803026304E+01  -1.698932803035615E+01  -1.698932803045163E+01
  -1.698932803054953E+01  -1.698932803064990E+01  -1.698932803075282E+01
  -1.698932803085833E+01  -1.698932803096653E+01  -1.698932803107746E+01
  -1.698932803119119E+01  -1.698932803130781E+01  -1.698932803142738E+01
  -1.698932803154997E+01  -1.698932803167566E+01  -1.698932803180454E+01
  -1.698932803193669E+01  -1.698932803207217E+01  -1.698932803221108E+01
  -1.698932803235351E+01  -1.698932803249955E+01  -1.698932803264928E+01
  -1.698932803280280E+01  -1.698932803296021E+01  -1.698932803312161E+01
  -1.698932803328708E+01  -1.698932803345675E+01  -1.698932803363071E+01
  -1.698932803380907E+01  -1.698932803399196E+01  -1.698932803417947E+01
  -1.698932803437172E+01  -1.698932803456884E+01  -1.698932803477095E+01
  -1.698932803497818E+01  -1.698932803519065E+01  -1.698932803540850E+01
  -1.698932803563187E+01  -1.698932803586089E+01  -1.698932803609571E+01
  -1.698932803633647E+01  -1.698932803658332E+01  -1.698932803683643E+01
  -1.698932803709594E+01  -1.698932803736202E+01  -1.698932803763483E+01
  -1.698932803791456E+01  -1.698932803820136E+01  -1.698932803849542E+01
  -1.698932803879693E+01  -1.698932803910607E+01  -1.698932803942303E+01
  -1.698932803974802E+01  -1.698932804008124E+01  -1.698932804042288E+01
  -1.698932804077318E+01  -1.698932804113235E+01  -1.698932804150060E+01
  -1.698932804187818E+01  -1.698932804226532E+01  -1.698932804266225E+01
  -1.698932804306924E+01  -1.698932804348653E+01  -1.698932804391438E+01
  -1.698932804435306E+01  -1.698932804480285E+01  -1.698932804526402E+01
  -1.698932804573686E+01  -1.698932804622168E+01  -1.698932804671877E+01
  -1.698932804722844E+01  -1.698932804775102E+01  -1.698932804828681E+01
  -1.698932804883618E+01  -1.698932804939945E+01  -1.698932804997699E+01
  -1.698932805056914E+01  -1.698932805117628E+01  -1.698932805179879E+01
  -1.698932805243706E+01  -1.698932805309149E+01  -1.698932805376248E+01
  -1.698932805445045E+01  -1.698932805515585E+01  -1.698932805587909E+01
  -1.698932805662065E+01  -1.698932805738099E+01  -1.698932805816056E+01
  -1.698932805895988E+01  -1.698932805977942E+01  -1.698932806061972E+01
  -1.698932806148128E+01  -1.698932806236466E+01  -1.698932806327039E+01
  -1.698932806419906E+01  -1.698932806515123E+01  -1.698932806612751E+01
  -1.698932806712850E+01  -1.698932806815483E+01  -1.698932806920714E+01
  -1.698932807028609E+01  -1.698932807139236E+01  -1.698932807252662E+01
  -1.698932807368961E+01  -1.698932807488202E+01  -1.698932807610463E+01
  -1.698932807735819E+01  -1.698932807864347E+01  -1.698932807996130E+01
  -1.698932808131249E+01  -1.698932808269787E+01  -1.698932808411833E+01
  -1.698932808557475E+01  -1.698932808706804E+01  -1.698932808859912E+01
  -1.698932809016897E+01  -1.698932809177856E+01  -1.698932809342889E+01
  -1.698932809512100E+01  -1.698932809685595E+01  -1.698932809863481E+01
  -1.698932810045871E+01  -1.698932810232877E+01  -1.698932810424618E+01
  -1.698932810621212E+01  -1.698932810822783E+01  -1.698932811029457E+01
  -1.698932811241362E+01  -1.698932811458632E+01  -1.698932811681402E+01
  -1.698932811909811E+01  -1.698932812144002E+01  -1.698932812384121E+01
  -1.698932812630319E+01  -1.698932812882749E+01  -1.698932813141570E+01
  -1.698932813406942E+01  -1.698932813679032E+01  -1.698932813958009E+01
  -1.698932814244048E+01  -1.698932814537329E+01  -1.698932814838034E+01
  -1.698932815146350E+01  -1.698932815462472E+01  -1.698932815786595E+01
  -1.698932816118923E+01  -1.698932816459665E+01  -1.698932816809031E+01
  -1.698932817167242E+01  -1.698932817534520E+01  -1.698932817911096E+01
  -1.698932818297204E+01  -1.698932818693086E+01  -1.698932819098989E+01
  -1.698932819515168E+01  -1.698932819941881E+01  -1.698932820379397E+01
  -1.698932820827988E+01  -1.698932821287934E+01  -1.698932821759522E+01
  -1.698932822243049E+01  -1.698932822738816E+01  -1.698932823247132E+01
  -1.698932823768315E+01  -1.698932824302692E+01  -1.698932824850595E+01
  -1.698932825412368E+01  -1.698932825988361E+01  -1.698932826578935E+01
  -1.698932827184458E+01  -1.698932827805309E+01  -1.698932828441876E+01
  -1.698932829094557E+01  -1.698932829763758E+01  -1.698932830449900E+01
  -1.698932831153409E+01  -1.698932831874728E+01  -1.698932832614304E+01
  -1.698932833372602E+01  -1.698932834150094E+01  -1.698932834947267E+01
  -1.698932835764618E+01  -1.698932836602659E+01  -1.698932837461913E+01
  -1.698932838342918E+01  -1.698932839246222E+01  -1.698932840172392E+01
  -1.698932841122005E+01  -1.698932842095655E+01  -1.698932843093950E+01
  -1.698932844117515E+01  -1.698932845166989E+01  -1.698932846243027E+01
  -1.698932847346301E+01  -1.698932848477502E+01  -1.698932849637335E+01
  -1.698932850826527E+01  -1.698932852045818E+01  -1.698932853295972E+01
  -1.698932854577768E+01  -1.698932855892010E+01  -1.698932857239517E+01
  -1.698932858621130E+01  -1.698932860037715E+01  -1.698932861490154E+01
  -1.698932862979357E+01  -1.698932864506251E+01  -1.698932866071794E+01
  -1.698932867676962E+01  -1.698932869322757E+01  -1.698932871010207E+01
  -1.698932872740368E+01  -1.698932874514320E+01  -1.698932876333171E+01
  -1.698932878198057E+01  -1.698932880110143E+01  -1.698932882070623E+01
  -1.698932884080723E+01  -1.698932886141696E+01  -1.698932888254832E+01
  -1.698932890421449E+01  -1.698932892642901E+01  -1.698932894920576E+01
  -1.698932897255897E+01  -1.698932899650320E+01  -1.698932902105343E+01
  -1.698932904622497E+01  -1.698932907203357E+01  -1.698932909849532E+01
  -1.698932912562676E+01  -1.698932915344483E+01  -1.698932918196689E+01
  -1.698932921121077E+01  -1.698932924119473E+01  -1.698932927193748E+01
  -1.698932930345821E+01  -1.698932933577662E+01  -1.698932936891288E+01
  -1.698932940288768E+01  -1.698932943772224E+01  -1.698932947343830E+01
  -1.698932951005816E+01  -1.698932954760467E+01  -1.698932958610128E+01
  -1.698932962557203E+01  -1.698932966604155E+01  -1.698932970753509E+01
  -1.698932975007857E+01  -1.698932979369854E+01  -1.698932983842222E+01
  -1.698932988427752E+01  -1.698932993129307E+01  -1.698932997949819E+01
  -1.698933002892300E+01  -1.698933007959830E+01  -1.698933013155574E+01
  -1.698933018482773E+01  -1.698933023944752E+01  -1.698933029544917E+01
  -1.698933035286764E+01  -1.698933041173873E+01  -1.698933047209918E+01
  -1.698933053398665E+01  -1.698933059743973E+01  -1.698933066249800E+01
  -1.698933072920204E+01  -1.698933079759346E+01  -1.698933086771490E+01
  -1.698933093961010E+01  -1.698933101332389E+01  -1.698933108890222E+01
  -1.698933116639223E+01  -1.698933124584223E+01  -1.698933132730174E+01
  -1.698933141082154E+01  -1.698933149645371E+01  -1.698933158425161E+01
  -1.698933167426996E+01  -1.698933176656487E+01  -1.698933186119384E+01
  -1.698933195821585E+01  -1.698933205769134E+01  -1.698933215968229E+01
  -1.698933226425224E+01  -1.698933237146632E+01  -1.698933248139131E+01
  -1.698933259409568E+01  -1.698933270964961E+01  -1.698933282812506E+01
  -1.698933294959579E+01  -1.698933307413742E+01  -1.698933320182750E+01
  -1.698933333274548E+01  -1.698933346697287E+01  -1.698933360459318E+01
  -1.698933374569204E+01  -1.698933389035726E+01  -1.698933403867882E+01
  -1.698933419074898E+01  -1.698933434666233E+01  -1.698933450651581E+01
  -1.698933467040883E+01  -1.698933483844328E+01  -1.698933501072361E+01
  -1.698933518735691E+01  -1.698933536845294E+01  -1.698933555412422E+01
  -1.698933574448611E+01  -1.698933593965686E+01  -1.698933613975768E+01
  -1.698933634491281E+01  -1.698933655524965E+01  -1.698933677089876E+01
  -1.698933699199398E+01  -1.698933721867251E+01  -1.698933745107499E+01
  -1.698933768934558E+01  -1.698933793363204E+01  -1.698933818408587E+01
  -1.698933844086233E+01  -1.698933870412056E+01  -1.698933897402370E+01
  -1.698933925073898E+01  -1.698933953443778E+01  -1.698933982529580E+01
  -1.698934012349310E+01  -1.698934042921427E+01  -1.698934074264849E+01
  -1.698934106398966E+01  -1.698934139343653E+01  -1.698934173119281E+01
  -1.698934207746727E+01  -1.698934243247393E+01  -1.698934279643208E+01
  -1.698934316956653E+01  -1.698934355210766E+01  -1.698934394429158E+01
  -1.698934434636029E+01  -1.698934475856181E+01  -1.698934518115028E+01
  -1.698934561438623E+01  -1.698934605853658E+01  -1.698934651387494E+01
  -1.698934698068167E+01  -1.698934745924409E+01  -1.698934794985663E+01
  -1.698934845282103E+01  -1.698934896844650E+01  -1.698934949704987E+01
  -1.698935003895583E+01  -1.698935059449708E+01  -1.698935116401455E+01
  -1.698935174785755E+01  -1.698935234638404E+01  -1.698935295996077E+01
  -1.698935358896355E+01  -1.698935423377740E+01  -1.698935489479684E+01
  -1.698935557242607E+01  -1.698935626707922E+01  -1.698935697918055E+01
  -1.698935770916475E+01  -1.698935845747713E+01  -1.698935922457393E+01
  -1.698936001092250E+01  -1.698936081700161E+01  -1.698936164330174E+01
  -1.698936249032531E+01  -1.698936335858694E+01  -1.698936424861381E+01
  -1.698936516094589E+01  -1.698936609613627E+01  -1.698936705475142E+01
  -1.698936803737155E+01  -1.698936904459088E+01  -1.698937007701801E+01
  -1.698937113527620E+01  -1.698937222000374E+01  -1.698937333185427E+01
  -1.698937447149713E+01  -1.698937563961772E+01  -1.698937683691787E+01
  -1.698937806411620E+01  -1.698937932194847E+01  -1.698938061116801E+01
  -1.698938193254607E+01  -1.698938328687224E+01  -1.698938467495482E+01
  -1.698938609762127E+01  -1.698938755571863E+01  -1.698938905011382E+01
  -1.698939058169437E+01  -1.698939215136844E+01  -1.698939376006566E+01
  -1.698939540873726E+01  -1.698939709835683E+01  -1.698939882992052E+01
  -1.698940060444767E+01  -1.698940242298133E+01  -1.698940428658843E+01
  -1.698940619636077E+01  -1.698940815341508E+01  -1.698941015889383E+01
  -1.698941221396551E+01  -1.698941431982529E+01  -1.698941647769556E+01
  -1.698941868882628E+01  -1.698942095449577E+01  -1.698942327601112E+01
  -1.698942565470860E+01  -1.698942809195443E+01  -1.698943058914530E+01
  -1.698943314770882E+01  -1.698943576910410E+01  -1.698943845482243E+01
  -1.698944120638764E+01  -1.698944402535688E+01  -1.698944691332115E+01
  -1.698944987190563E+01  -1.698945290277056E+01  -1.698945600761166E+01
  -1.698945918816066E+01  -1.698946244618595E+01  -1.698946578349309E+01
  -1.698946920192533E+01  -1.698947270336422E+01  -1.698947628973017E+01
  -1.698947996298283E+01  -1.698948372512180E+01  -1.698948757818704E+01
  -1.698949152425931E+01  -1.698949556546087E+01  -1.698949970395566E+01
  -1.698950394194997E+01  -1.698950828169276E+01  -1.698951272547616E+01
  -1.698951727563568E+01  -1.698952193455074E+01  -1.698952670464505E+01
  -1.698953158838664E+01  -1.698953658828833E+01  -1.698954170690788E+01
  -1.698954694684821E+01  -1.698955231075762E+01  -1.698955780132962E+01
  -1.698956342130325E+01  -1.698956917346293E+01  -1.698957506063839E+01
  -1.698958108570458E+01  -1.698958725158134E+01  -1.698959356123332E+01
  -1.698960001766943E+01  -1.698960662394248E+01  -1.698961338314857E+01
  -1.698962029842662E+01  -1.698962737295739E+01  -1.698963460996277E+01
  -1.698964201270482E+01  -1.698964958448455E+01  -1.698965732864080E+01
  -1.698966524854879E+01  -1.698967334761866E+01  -1.698968162929357E+01
  -1.698969009704809E+01  -1.698969875438592E+01  -1.698970760483775E+01
  -1.698971665195870E+01  -1.698972589932571E+01  -1.698973535053457E+01
  -1.698974500919666E+01  -1.698975487893562E+01  -1.698976496338353E+01
  -1.698977526617688E+01  -1.698978579095225E+01  -1.698979654134156E+01
  -1.698980752096707E+01  -1.698981873343589E+01  -1.698983018233416E+01
  -1.698984187122088E+01  -1.698985380362101E+01  -1.698986598301843E+01
  -1.698987841284823E+01  -1.698989109648840E+01  -1.698990403725114E+01
  -1.698991723837339E+01  -1.698993070300688E+01  -1.698994443420740E+01
  -1.698995843492340E+01  -1.698997270798391E+01  -1.698998725608559E+01
  -1.699000208177898E+01  -1.699001718745385E+01  -1.699003257532374E+01
  -1.699004824740931E+01  -1.699006420552087E+01  -1.699008045123971E+01
  -1.699009698589830E+01  -1.699011381055928E+01  -1.699013092599318E+01
  -1.699014833265481E+01  -1.699016603065816E+01  -1.699018401974990E+01
  -1.699020229928123E+01  -1.699022086817806E+01  -1.699023972490947E+01
  -1.699025886745433E+01  -1.699027829326591E+01  -1.699029799923446E+01
  -1.699031798164768E+01  -1.699033823614881E+01  -1.699035875769239E+01
  -1.699037954049746E+01  -1.699040057799809E+01  -1.699042186279110E+01
  -1.699044338658084E+01  -1.699046514012084E+01  -1.699048711315217E+01
  -1.699050929433839E+01  -1.699053167119683E+01  -1.699055423002598E+01
  -1.699057695582906E+01  -1.699059983223307E+01  -1.699062284140367E+01
  -1.699064596395510E+01  -1.699066917885538E+01  -1.699069246332616E+01
  -1.699071579273723E+01  -1.699073914049520E+01  -1.699076247792615E+01
  -1.699078577415193E+01  -1.699080899595985E+01  -1.699083210766514E+01
  -1.699085507096628E+01  -1.699087784479231E+01  -1.699090038514216E+01
  -1.699092264491530E+01  -1.699094457373332E+01  -1.699096611775215E+01
  -1.699098721946419E+01  -1.699100781748998E+01  -1.699102784635892E+01
  -1.699104723627834E+01  -1.699106591289045E+01  -1.699108379701651E+01
  -1.699110080438757E+01  -1.699111684536113E+01  -1.699113182462298E+01
  -1.699114564087347E+01  -1.699115818649755E+01  -1.699116934721750E+01
  -1.699117900172782E+01  -1.699118702131108E+01  -1.699119326943406E+01
  -1.699119760132295E+01  -1.699119986351672E+01  -1.699119989339760E+01
  -1.699119751869735E+01  -1.699119255697845E+01  -1.699118481508860E+01
  -1.699117408858748E+01  -1.699116016114440E+01  -1.699114280390517E+01
  -1.699112177482704E+01  -1.699109681797994E+01  -1.699106766281231E+01
  -1.699103402338005E+01  -1.699099559753661E+01  -1.699095206608241E+01
  -1.699090309187160E+01  -1.699084831887421E+01  -1.699078737119141E+01
  -1.699071985202171E+01  -1.699064534257587E+01  -1.699056340093778E+01
  -1.699047356086917E+01  -1.699037533055512E+01  -1.699026819128778E+01
  -1.699015159608535E+01  -1.699002496824336E+01  -1.698988769981494E+01
  -1.698973915001689E+01  -1.698957864355816E+01  -1.698940546888703E+01
  -1.698921887635331E+01  -1.698901807628175E+01  -1.698880223695243E+01
  -1.698857048248415E+01  -1.698832189061614E+01  -1.698805549038383E+01
  -1.698777025968362E+01  -1.698746512272201E+01  -1.698713894734369E+01
  -1.698679054223336E+01  -1.698641865398587E+01  -1.698602196403858E+01
  -1.698559908546043E+01  -1.698514855959107E+01  -1.698466885252395E+01
  -1.698415835142660E+01  -1.698361536069119E+01  -1.698303809790833E+01
  -1.698242468965659E+01  -1.698177316710029E+01  -1.698108146138765E+01
  -1.698034739884100E+01  -1.697956869593096E+01  -1.697874295402566E+01
  -1.697786765390642E+01  -1.697694015004040E+01  -1.697595766460113E+01
  -1.697491728122703E+01  -1.697381593850810E+01  -1.697265042319072E+01
  -1.697141736309001E+01  -1.697011321969924E+01  -1.696873428048541E+01
  -1.696727665085999E+01  -1.696573624581353E+01  -1.696410878120289E+01
  -1.696238976467915E+01  -1.696057448624502E+01  -1.695865800842948E+01
  -1.695663515606797E+01  -1.695450050567623E+01  -1.695224837440559E+01
  -1.694987280856815E+01  -1.694736757171962E+01  -1.694472613228835E+01
  -1.694194165073894E+01  -1.693900696625895E+01  -1.693591458295809E+01
  -1.693265665556878E+01  -1.692922497463843E+01  -1.692561095120351E+01
  -1.692180560093659E+01  -1.691779952775828E+01  -1.691358290690666E+01
  -1.690914546745798E+01  -1.690447647429352E+01  -1.689956470950886E+01
  -1.689439845326313E+01  -1.688896546406743E+01  -1.688325295851391E+01
  -1.687724759044830E+01  -1.687093542959142E+01  -1.686430193961784E+01
  -1.685733195570190E+01  -1.685000966154532E+01  -1.684231856590303E+01
  -1.683424147862802E+01  -1.682576048625991E+01  -1.681685692718604E+01
  -1.680751136640876E+01  -1.679770356995786E+01  -1.678741247899194E+01
  -1.677661618363954E+01  -1.676529189663619E+01  -1.675341592682129E+01
  -1.674096365256592E+01  -1.672790949521049E+01  -1.671422689260012E+01
  -1.669988827281458E+01  -1.668486502819951E+01  -1.666912748981612E+01
  -1.665264490243772E+01  -1.663538540023330E+01  -1.661731598329069E+01
  -1.659840249514569E+01  -1.657860960149671E+01  -1.655790077030019E+01
  -1.653623825345693E+01  -1.651358307031585E+01  -1.648989499323929E+01
  -1.646513253549081E+01  -1.643925294172610E+01  -1.641221218138577E+01
  -1.638396494530941E+01  -1.635446464591060E+01  -1.632366342127333E+01
  -1.629151214355241E+01  -1.625796043208170E+01  -1.622295667161672E+01
  -1.618644803616041E+01  -1.614838051884301E+01  -1.610869896834962E+01
  -1.606734713241085E+01  -1.602426770889270E+01  -1.597940240504381E+01
  -1.593269200547592E+01  -1.588407644947329E+01  -1.583349491824205E+01
  -1.578088593272554E+01  -1.572618746262366E+01  -1.566933704726291E+01
  -1.561027192897039E+01  -1.554892919960622E+01  -1.548524596090665E+01
  -1.541915949928321E+01  -1.535060747570946E+01  -1.527952813130864E+01
  -1.520586050922934E+01  -1.512954469336247E+01  -1.505052206441256E+01
  -1.496873557378440E+01  -1.488413003568800E+01  -1.479665243779358E+01
  -1.470625227068841E+01  -1.461288187629538E+01  -1.451649681530902E+01
  -1.441705625358975E+01  -1.431452336732819E+01  -1.420886576665059E+01
  -1.410005593718381E+01  -1.398807169893111E+01  -1.387289668163357E+01
  -1.375452081560157E+01  -1.363294083680093E+01  -1.350816080476936E+01
  -1.338019263171987E+01  -1.324905662096393E+01  -1.311478201255698E+01
  -1.297740753383558E+01  -1.283698195228214E+01  -1.269356462791864E+01
  -1.254722606220166E+01  -1.239804844016409E+01  -1.224612616232927E+01
  -1.209156636271113E+01  -1.193448940900624E+01  -1.177502938088479E+01
  -1.161333452208934E+01  -1.144956766185200E+01  -1.128390660093577E+01
  -1.111654445738214E+01  -1.094768996679734E+01  -1.077756773171412E+01
  -1.060641841420705E+01  -1.043449886549509E+01  -1.026201278292013E+01
  -1.008937141944103E+01  -9.916827633395371E+00  -9.744702779360246E+00
  -9.573333835055323E+00  -9.403072977691682E+00  -9.234287026716329E+00
  -9.067356735749172E+00  -8.902675913569169E+00  -8.740650350581491E+00
  -8.581696523268068E+00  -8.426240044698634E+00  -8.274713824288749E+00
  -8.127555894711975E+00  -7.985206858333264E+00  -7.848106899917670E+00
  -7.716692306962573E+00  -7.591391434168470E+00  -7.472620044795305E+00
  -7.360775959571920E+00  -7.256232944210795E+00  -7.159333770382140E+00
  -7.070382393352141E+00  -6.989635203719559E+00  -6.917291332318291E+00
  -6.853482018097784E+00  -6.798259090523183E+00  -6.751582672742335E+00
  -6.713308281499671E+00  -6.683173586558542E+00  -6.660785198106563E+00
  -6.645609468789645E+00  -6.636973333420126E+00  -6.634047776200349E+00
  -6.635838579905005E+00  -6.641184222891068E+00  -6.648759296913035E+00
  -6.657085102888814E+00  -6.664549340994269E+00  -6.669437084628362E+00
  -6.669975515417663E+00  -6.664395202582948E+00  -6.651011044484464E+00
  -6.628326371180785E+00  -6.595164163747190E+00  -6.550829921648874E+00
  -6.495311376387257E+00  -6.429520063287070E+00  -6.355583233394372E+00
  -6.277197286210041E+00  -6.198807424752657E+00  -6.121434068545186E+00
  -6.045060560337964E+00  -5.969670789906774E+00  -5.895249162296825E+00
  -5.821780567976846E+00  -5.749250354812332E+00  -5.677644301768318E+00
  -5.606948594254324E+00  -5.537149801028183E+00  -5.468234852877716E+00
  -5.400191025018595E+00  -5.333005912188738E+00  -5.266667413975468E+00
  -5.201163718458905E+00  -5.136483286843498E+00  -5.072614839142702E+00
  -5.009547340847011E+00  -4.947269990515240E+00  -4.885772208233090E+00
  -4.825043624885037E+00  -4.765074072182159E+00  -4.705853573405832E+00
  -4.647372334815237E+00  -4.589620737672193E+00  -4.532589330843817E+00
  -4.476268823942391E+00  -4.420650080964315E+00  -4.365724114391877E+00
  -4.311482079724840E+00  -4.257915270414300E+00  -4.205015113142654E+00
  -4.152773163475367E+00  -4.101181101803420E+00  -4.050230729579705E+00
  -3.999913965819831E+00  -3.950222843846542E+00  -3.901149508257191E+00
  -3.852686212095547E+00  -3.804825314210865E+00  -3.757559276787672E+00
  -3.710880663031773E+00  -3.664782134998605E+00  -3.619256451550937E+00
  -3.574296466434960E+00  -3.529895126463188E+00  -3.486045469795166E+00
  -3.442740624306607E+00  -3.399973806038650E+00  -3.357738317720314E+00
  -3.316027547356764E+00  -3.274834966877712E+00  -3.234154130840267E+00
  -3.193978675180968E+00  -3.154302316012991E+00  -3.115118848463871E+00
  -3.076422145550559E+00  -3.038206157088395E+00  -3.000464908630796E+00
  -2.963192500437627E+00  -2.926383106469257E+00  -2.890030973404783E+00
  -2.854130419682327E+00  -2.818675834559656E+00  -2.783661677194088E+00
  -2.749082475739886E+00  -2.714932826462430E+00  -2.681207392868070E+00
  -2.647900904848505E+00  -2.615008157839388E+00  -2.582524011992010E+00
  -2.550443391357769E+00  -2.518761283084813E+00  -2.487472736626219E+00
  -2.456572862959578E+00  -2.426056833817319E+00  -2.395919880927655E+00
  -2.366157295265807E+00  -2.336764426315055E+00  -2.307736681337722E+00
  -2.279069524655469E+00  -2.250758476939043E+00  -2.222799114507148E+00
  -2.195187068634139E+00  -2.167918024866710E+00  -2.140987722349050E+00
  -2.114391953156613E+00  -2.088126561638302E+00  -2.062187443766758E+00
  -2.036570546496961E+00  -2.011271867132704E+00  -1.986287452701052E+00
  -1.961613399334644E+00  -1.937245851661528E+00  -1.913181002202820E+00
  -1.889415090777640E+00  -1.865944403915583E+00  -1.842765274276512E+00
  -1.819874080077397E+00  -1.797267244526520E+00  -1.774941235264464E+00
  -1.752892563812227E+00  -1.731117785026124E+00  -1.709613496559416E+00
  -1.688376338330735E+00  -1.667402991998979E+00  -1.646690180444816E+00
  -1.626234667258642E+00  -1.606033256234784E+00  -1.586082790872145E+00
  -1.566380153880876E+00  -1.546922266695315E+00  -1.527706088992919E+00
  -1.508728618219135E+00  -1.489986889118258E+00  -1.471477973270013E+00
  -1.453198978631956E+00  -1.435147049087584E+00  -1.417319363999946E+00
  -1.399713137770949E+00  -1.382325619405981E+00  -1.365154092084061E+00
  -1.348195872733295E+00  -1.331448311611549E+00  -1.314908791892438E+00
  -1.298574729256336E+00  -1.282443571486562E+00  -1.266512798070564E+00
  -1.250779919805991E+00  -1.235242478411770E+00  -1.219898046143909E+00
  -1.204744225416137E+00  -1.189778648425267E+00  -1.174998976781138E+00
  -1.160402901141264E+00  -1.145988140849918E+00  -1.131752443581765E+00
  -1.117693584989942E+00  -1.103809368358414E+00  -1.090097624258780E+00
  -1.076556210211231E+00  -1.063183010349784E+00  -1.049975935091690E+00
  -1.036932920810869E+00  -1.024051929515519E+00  -1.011330948529615E+00
  -9.987679901784449E-01  -9.863610914780487E-01  -9.741083138284482E-01
  -9.620077427107847E-01  -9.500574873881320E-01  -9.382556806100629E-01
  -9.266004783209689E-01  -9.150900593714487E-01  -9.037226252355247E-01
  -8.924964013812107E-01  -8.814096303072291E-01  -8.704605806845920E-01
  -8.596475468751900E-01  -8.489687427729277E-01  -8.384227288647280E-01
  -8.280076744663668E-01  -8.177219979509666E-01  -8.075640921606742E-01
  -7.975323699020908E-01  -7.876252636982367E-01  -7.778412255436421E-01
  -7.681787266624829E-01  -7.586362572696750E-01  -7.492123264042286E-01
  -7.399054614131924E-01  -7.307142081558493E-01  -7.216371304801831E-01
  -7.126728100743330E-01  -7.038198462450064E-01  -6.950768556985333E-01
  -6.864424723249634E-01  -6.779153469842772E-01  -6.694941472957829E-01
  -6.611775574299031E-01  -6.529642779025474E-01  -6.448530253720769E-01
  -6.368425324387884E-01  -6.289315474468554E-01  -6.211188342887856E-01
  -6.134031722122494E-01  -6.057833556293466E-01  -5.982581939282390E-01
  -5.908265112870952E-01  -5.834871464903897E-01  -5.762389527474365E-01
  -5.690807975132146E-01  -5.620115623114104E-01  -5.550301425596352E-01
  -5.481354473968564E-01  -5.413263995129229E-01  -5.346019349802477E-01
  -5.279610030875717E-01  -5.214025661757695E-01  -5.149255994757375E-01
  -5.085290909482482E-01  -5.022120411258265E-01  -4.959734629565912E-01
  -4.898123816500063E-01  -4.837278345245882E-01  -4.777188708574665E-01
  -4.717845517358391E-01  -4.659239499102771E-01  -4.601361496498151E-01
  -4.544202465988926E-01  -4.487753476360263E-01  -4.432005707342652E-01
  -4.376950448233833E-01  -4.322579096537492E-01  -4.268883156619372E-01
  -4.215854238379580E-01  -4.163484055941729E-01  -4.111764426358321E-01
  -4.060687268331951E-01  -4.010244600952816E-01  -3.960428542451485E-01
  -3.911231308967448E-01  -3.862645213332918E-01  -3.814662663871554E-01
  -3.767276163212436E-01  -3.720478307118408E-01  -3.674261783329204E-01
  -3.628619370419012E-01  -3.583543936667917E-01  -3.539028438947722E-01
  -3.495065921621315E-01  -3.451649515455916E-01  -3.408772436549753E-01
  -3.366427985271985E-01  -3.324609545215990E-01  -3.283310582165398E-01
  -3.242524643073196E-01  -3.202245355053464E-01  -3.162466424385457E-01
  -3.123181635530370E-01  -3.084384850159991E-01  -3.046070006197664E-01
  -3.008231116871098E-01  -2.970862269776817E-01  -2.933957625956478E-01
  -2.897511418984370E-01  -2.861517954066498E-01  -2.825971607150766E-01
  -2.790866824048119E-01  -2.756198119564806E-01  -2.721960076645207E-01
  -2.688147345525436E-01  -2.654754642897497E-01  -2.621776751083636E-01
  -2.589208517221193E-01  -2.557044852457349E-01  -2.525280731154034E-01
  -2.493911190102698E-01  -2.462931327748707E-01  -2.432336303425559E-01
  -2.402121336598448E-01  -2.372281706117321E-01  -2.342812749479230E-01
  -2.313709862099726E-01  -2.284968496593465E-01  -2.256584162063600E-01
  -2.228552423400100E-01  -2.200868900586795E-01  -2.173529268016892E-01
  -2.146529253817211E-01  -2.119864639180587E-01  -2.093531257706722E-01
  -2.067524994751205E-01  -2.041841786782520E-01  -2.016477620747189E-01
  -1.991428533442655E-01  -1.966690610898055E-01  -1.942259987762681E-01
  -1.918132846701938E-01  -1.894305417800977E-01  -1.870773977975543E-01
  -1.847534850390274E-01  -1.824584403884229E-01  -1.801919052403425E-01
  -1.779535254440601E-01  -1.757429512481775E-01  -1.735598372459783E-01
  -1.714038423214599E-01  -1.692746295960273E-01  -1.671718663758618E-01
  -1.650952240999312E-01  -1.630443782886542E-01  -1.610190084932021E-01
  -1.590187982454219E-01  -1.570434350083947E-01  -1.550926101275946E-01
  -1.531660187826647E-01  -1.512633599397890E-01  -1.493843363046507E-01
  -1.475286542759857E-01  -1.456960238997007E-01  -1.438861588235699E-01
  -1.420987762524949E-01  -1.403335969043106E-01  -1.385903449661543E-01
  -1.368687480513634E-01  -1.351685371569160E-01  -1.334894466214029E-01
  -1.318312140835099E-01  -1.301935804410309E-01  -1.285762898103766E-01
  -1.269790894865950E-01  -1.254017299038874E-01  -1.238439645966084E-01
  -1.223055501607607E-01  -1.207862462159581E-01
  </PP_LOCAL>
  <PP_NONLOCAL>
    <PP_BETA.1 index="1" label="4S" angular_momentum="0" cutoff_radius_index="905" cutoff_radius="1.5000000000000000" ultrasoft_cutoff_radius="1.8999999999999999">
   4.523505728532724E-04   4.580404426263347E-04   4.638018821511089E-04
   4.696357916642545E-04   4.455673379024951E-04   4.780030578960502E-04
   4.829890081511634E-04   4.744765653535189E-04   5.124089089033682E-04
   4.848747693181818E-04   5.310824309419961E-04   5.209875391611538E-04
   5.156095335452186E-04   5.152722688797698E-04   5.233999107255721E-04
   5.325254602213808E-04   5.490784631417174E-04   5.417806880260029E-04
   5.780893556257480E-04   5.483178456576719E-04   5.764655865097314E-04
   6.013071996438281E-04   5.889276163317594E-04   5.849685902886669E-04
   6.126837916031157E-04   6.267059463927159E-04   6.287892945863460E-04
   6.283401115583440E-04   6.574163786710538E-04   6.557129492867561E-04
   6.570212829762404E-04   6.526269617885064E-04   6.973354903645063E-04
   7.028839748917867E-04   6.775585004431123E-04   6.879355010394259E-04
   7.148524556121194E-04   7.228725852484325E-04   7.231020550928502E-04
   7.296965676899803E-04   7.542555329485834E-04   7.781983950021221E-04
   7.579010000363789E-04   7.731280672446175E-04   7.879961110299483E-04
   8.159682244984479E-04   7.888297921062187E-04   8.348076726674980E-04
   8.336743023710583E-04   8.265417102691908E-04   8.377171798689617E-04
   8.612406194172598E-04   8.743949372536364E-04   8.706256770591239E-04
   8.682719226952573E-04   8.923943839286297E-04   9.083578553274671E-04
   9.347839959139778E-04   9.365049831693284E-04   9.499756079706725E-04
   9.706963760330242E-04   9.754990387198306E-04   9.985775778041869E-04
   9.870070829516367E-04   9.866303723492439E-04   1.014983921636584E-03
   1.005570927115985E-03   1.065909751815974E-03   1.055880918216741E-03
   1.077941769523617E-03   1.090166411204345E-03   1.098119312326930E-03
   1.102418961940091E-03   1.135660790195434E-03   1.143750999676306E-03
   1.150133069455050E-03   1.166991252855659E-03   1.186562587987314E-03
   1.192760970755088E-03   1.199600039896054E-03   1.239086973242431E-03
   1.250007045488340E-03   1.257961252969522E-03   1.273897063192753E-03
   1.287016157952764E-03   1.304912509154044E-03   1.329728949469186E-03
   1.345143073906430E-03   1.364829707830278E-03   1.380791974231979E-03
   1.397290713319260E-03   1.395488196170427E-03   1.426393024675052E-03
   1.458401263765563E-03   1.454062291864996E-03   1.479563515608379E-03
   1.494314292863383E-03   1.513302719541851E-03   1.549676634388944E-03
   1.558322471693629E-03   1.584666360052056E-03   1.596448141610876E-03
   1.615727984602466E-03   1.630543783867622E-03   1.663122299768630E-03
   1.690962291509474E-03   1.700978058212871E-03   1.724128332273867E-03
   1.737765658546123E-03   1.758795300409510E-03   1.791486498380679E-03
   1.804913109534567E-03   1.840008285601408E-03   1.859244154901296E-03
   1.880265046861868E-03   1.896413092378466E-03   1.928481296519652E-03
   1.952728461819736E-03   1.977039674011638E-03   2.001600546810436E-03
   2.025910429460195E-03   2.045070757816070E-03   2.074921969379445E-03
   2.112643474215276E-03   2.132100353068503E-03   2.152650098225461E-03
   2.179288983857122E-03   2.220448379611453E-03   2.243154092672200E-03
   2.269614584551077E-03   2.294464569953983E-03   2.319368549128897E-03
   2.353195088437052E-03   2.388419988043997E-03   2.417174450811299E-03
   2.438422890198869E-03   2.478723917206993E-03   2.514039692140507E-03
   2.546403026382399E-03   2.562265680116693E-03   2.611614906542381E-03
   2.631377468604729E-03   2.666310687790885E-03   2.705051597826108E-03
   2.735869256907469E-03   2.763398023462732E-03   2.804402904677178E-03
   2.841575031633209E-03   2.872434725065404E-03   2.908672370571741E-03
   2.948899595404147E-03   2.992167059915923E-03   3.030825334969012E-03
   3.068548866919180E-03   3.096373594714430E-03   3.141019146139318E-03
   3.176798356798016E-03   3.213439363580955E-03   3.260073089968119E-03
   3.298576613251225E-03   3.337647465143839E-03   3.383909528193896E-03
   3.429402807528098E-03   3.468279671325430E-03   3.514656605105582E-03
   3.557737391465920E-03   3.600659834349151E-03   3.655956093474882E-03
   3.687547876078806E-03   3.747622627100017E-03   3.788476099008259E-03
   3.834483195049421E-03   3.886299232459728E-03   3.936219137136626E-03
   3.978771118967911E-03   4.029658490614041E-03   4.086715095310278E-03
   4.133553634874471E-03   4.185191324659193E-03   4.236552291841084E-03
   4.289946156019631E-03   4.346397139206620E-03   4.397820021366822E-03
   4.458197618602805E-03   4.508230471336694E-03   4.570405927257742E-03
   4.625968921493584E-03   4.682867947540220E-03   4.740617578508854E-03
   4.803505692033777E-03   4.860947858033593E-03   4.925820049805435E-03
   4.986423849563770E-03   5.047248581778463E-03   5.110629149878587E-03
   5.177696188109149E-03   5.239612022207463E-03   5.309928634918359E-03
   5.372415681134224E-03   5.437981787089929E-03   5.510315079010064E-03
   5.576792683609222E-03   5.652585097196350E-03   5.718116621930280E-03
   5.794453055326387E-03   5.862110105357698E-03   5.943282084120094E-03
   6.013703928443748E-03   6.089147548649254E-03   6.164945189336579E-03
   6.242638501106623E-03   6.321114804682393E-03   6.407095722053224E-03
   6.484187260342555E-03   6.561566122989138E-03   6.649385881200065E-03
   6.730516613436099E-03   6.816503697498644E-03   6.901584795761639E-03
   6.989083608930025E-03   7.074297735651103E-03   7.164793725712659E-03
   7.254220388459021E-03   7.344738109859250E-03   7.436461053030252E-03
   7.533165457650592E-03   7.627564113826257E-03   7.724382553449594E-03
   7.821632067702200E-03   7.919398970236302E-03   8.018481702496305E-03
   8.118482419117612E-03   8.221744737692882E-03   8.325356607524426E-03
   8.428575024597929E-03   8.534840386552556E-03   8.641726165194263E-03
   8.752311504160004E-03   8.861612484440562E-03   8.970132780233009E-03
   9.084737335927240E-03   9.201096669169018E-03   9.313860253226280E-03
   9.432835852000054E-03   9.550032619731308E-03   9.672176111768571E-03
   9.791885098064779E-03   9.917367355149254E-03   1.004001554641176E-02
   1.016915765916016E-02   1.029638036086278E-02   1.042357805047833E-02
   1.055825495627449E-02   1.068996251607857E-02   1.082281685792919E-02
   1.096015460569977E-02   1.109762430001071E-02   1.123860449614122E-02
   1.137608882204544E-02   1.152188880746452E-02   1.166501771181316E-02
   1.181293673418349E-02   1.196293874081589E-02   1.211179210641344E-02
   1.226535905070736E-02   1.241963242890454E-02   1.257385672040856E-02
   1.273165828726353E-02   1.289297136615530E-02   1.305519651627141E-02
   1.321827973784662E-02   1.338642266782619E-02   1.355380289307817E-02
   1.372639110838647E-02   1.389694127727359E-02   1.407109085251856E-02
   1.424878163938381E-02   1.442800509074504E-02   1.461035763749530E-02
   1.479313334816401E-02   1.497957594780719E-02   1.516747992862788E-02
   1.535880865655048E-02   1.555258507847557E-02   1.574799159051665E-02
   1.594627551723871E-02   1.614759920124653E-02   1.634929917827355E-02
   1.655582393042676E-02   1.676252459879668E-02   1.697394296944665E-02
   1.718754233402209E-02   1.740439697455254E-02   1.762304029993422E-02
   1.784482849883406E-02   1.806813908786975E-02   1.829634116914769E-02
   1.852631097519841E-02   1.875859694301285E-02   1.899581288324592E-02
   1.923412241499800E-02   1.947783981697160E-02   1.972014359710150E-02
   1.997013705830808E-02   2.022144458733832E-02   2.047568441155589E-02
   2.073242223013150E-02   2.099369205243806E-02   2.125833989771220E-02
   2.152450286875851E-02   2.179605869057166E-02   2.206940683328384E-02
   2.234739021147281E-02   2.262896341111409E-02   2.291281371794174E-02
   2.320104157662795E-02   2.349272337975061E-02   2.378867553736663E-02
   2.408907293482643E-02   2.439056430278463E-02   2.469790853958309E-02
   2.500932492371288E-02   2.532281650768242E-02   2.564171020171724E-02
   2.596367016705736E-02   2.629069041784637E-02   2.662223761423532E-02
   2.695612003192815E-02   2.729570059865694E-02   2.763781602919879E-02
   2.798640216580983E-02   2.833788623915501E-02   2.869486063148163E-02
   2.905637609933320E-02   2.942148018266577E-02   2.979104972690050E-02
   3.016590017238152E-02   3.054529583625643E-02   3.093004307021774E-02
   3.131888036881136E-02   3.171274181168426E-02   3.211169840089778E-02
   3.251580155811817E-02   3.292400683444074E-02   3.333955393703292E-02
   3.375789498107373E-02   3.418303862113925E-02   3.461252725663577E-02
   3.504731643122150E-02   3.548949585924688E-02   3.593539658413092E-02
   3.638777946926686E-02   3.684505384599168E-02   3.730858432928463E-02
   3.777858956447311E-02   3.825309249212427E-02   3.873442242537273E-02
   3.922174824579594E-02   3.971526003227543E-02   4.021400518967333E-02
   4.072069563286274E-02   4.123296695445733E-02   4.175115265822749E-02
   4.227711020657576E-02   4.280842234264659E-02   4.334684377271181E-02
   4.389197077306672E-02   4.444484089651590E-02   4.500329359703636E-02
   4.556975269798480E-02   4.614277964049496E-02   4.672342740491331E-02
   4.731091978949031E-02   4.790630217964420E-02   4.850885098257596E-02
   4.911889622690691E-02   4.973690317498303E-02   5.036239959334221E-02
   5.099626491716291E-02   5.163772770174857E-02   5.228737121452554E-02
   5.294509911346701E-02   5.361091191932621E-02   5.428545179686539E-02
   5.496867952248419E-02   5.565955520860699E-02   5.635986363310863E-02
   5.706921170765655E-02   5.778651050056105E-02   5.851405191769432E-02
   5.924989494552335E-02   5.999538531782767E-02   6.075032955874438E-02
   6.151441397736601E-02   6.228834569640274E-02   6.307182418171342E-02
   6.386543223106456E-02   6.466873821219998E-02   6.548220785685377E-02
   6.630648344427259E-02   6.713995676103313E-02   6.798542607510161E-02
   6.884028941420794E-02   6.970646818622761E-02   7.058340130951679E-02
   7.147114563717594E-02   7.237033673640925E-02   7.328113280351678E-02
   7.420279444357325E-02   7.513678109551059E-02   7.608150154231597E-02
   7.703894593473581E-02   7.800799426886762E-02   7.898971460437032E-02
   7.998342207607445E-02   8.098968085631064E-02   8.200871317092062E-02
   8.304030605505108E-02   8.408538717489744E-02   8.514318075899752E-02
   8.621449753984667E-02   8.729940291409655E-02   8.839770207256592E-02
   8.950972928619016E-02   9.063624328455511E-02   9.177660052166026E-02
   9.293147314851158E-02   9.410069424929279E-02   9.528461900194785E-02
   9.648358253254763E-02   9.769750677003586E-02   9.892698531930133E-02
   1.001717262841764E-01   1.014322573506821E-01   1.027084418166808E-01
   1.040011421763491E-01   1.053096043465969E-01   1.066348310688037E-01
   1.079768315076466E-01   1.093355364130622E-01   1.107113114668845E-01
   1.121048178306072E-01   1.135151887463817E-01   1.149438463695871E-01
   1.163904617206768E-01   1.178552957148309E-01   1.193383449631433E-01
   1.208404700756303E-01   1.223609708821014E-01   1.239011581328766E-01
   1.254605532281099E-01   1.270394921506091E-01   1.286383992813924E-01
   1.302575927232290E-01   1.318969417457145E-01   1.335570467961835E-01
   1.352381575612593E-01   1.369403716143589E-01   1.386641878093746E-01
   1.404095898613429E-01   1.421769454352209E-01   1.439665640529775E-01
   1.457790326312214E-01   1.476140090333526E-01   1.494722622761007E-01
   1.513540942932519E-01   1.532595020749801E-01   1.551889258249783E-01
   1.571427417333879E-01   1.591211430561996E-01   1.611245740664327E-01
   1.631532264956803E-01   1.652074826657106E-01   1.672875417239315E-01
   1.693940804209042E-01   1.715270122299479E-01   1.736870444844740E-01
   1.758740991434085E-01   1.780888625203119E-01   1.803316880402246E-01
   1.826026926019395E-01   1.849023753391172E-01   1.872311235513742E-01
   1.895892523110625E-01   1.919772000094415E-01   1.943953580977240E-01
   1.968440400389770E-01   1.993235540690996E-01   2.018344062097324E-01
   2.043770395624644E-01   2.069517641897427E-01   2.095590977936990E-01
   2.121993000726565E-01   2.148729378682539E-01   2.175803355348460E-01
   2.203220662346936E-01   2.230983446905146E-01   2.259098582627210E-01
   2.287567535238395E-01   2.316397356103828E-01   2.345592653340471E-01
   2.375155945000866E-01   2.405095729594304E-01   2.435413037416794E-01
   2.466113568894723E-01   2.497204633384094E-01   2.528687932216069E-01
   2.560570148181327E-01   2.592857947785205E-01   2.625552832836071E-01
   2.658663278741429E-01   2.692192140558571E-01   2.726147620197334E-01
   2.760533141317971E-01   2.795354643314472E-01   2.830617106035742E-01
   2.866328605614452E-01   2.902493701237940E-01   2.939115797249805E-01
   2.976204312095572E-01   3.013763611738618E-01   3.051799420775918E-01
   3.090319403585777E-01   3.129327769496690E-01   3.168833166473242E-01
   3.208841144835475E-01   3.249356908286742E-01   3.290389277645289E-01
   3.331943919039624E-01   3.374026609877703E-01   3.416646018304377E-01
   3.459807497960732E-01   3.503519334106286E-01   3.547788566395020E-01
   3.592622023525465E-01   3.638028154869417E-01   3.684013011157852E-01
   3.730584899340421E-01   3.777751014670088E-01   3.825520007769825E-01
   3.873900164399124E-01   3.922897208963825E-01   3.972522414672817E-01
   4.022782027841636E-01   4.073684014766101E-01   4.125239362014881E-01
   4.177453578547556E-01   4.230338522943242E-01   4.283900432697365E-01
   4.338150292287004E-01   4.393095463112431E-01   4.448747500379788E-01
   4.505113400956908E-01   4.562203566021452E-01   4.620029086285697E-01
   4.678598229844049E-01   4.737921467408235E-01   4.798008946995225E-01
   4.858871349665925E-01   4.920518101701283E-01   4.982960681337367E-01
   5.046209164866831E-01   5.110275888363560E-01   5.175170926801052E-01
   5.240905189482667E-01   5.307490740569172E-01   5.374939061176818E-01
   5.443262376061888E-01   5.512471683798559E-01   5.582580330535905E-01
   5.653599717476041E-01   5.725542857986419E-01   5.798422722175793E-01
   5.872252022439035E-01   5.947043596918107E-01   6.022811659114815E-01
   6.099569725364375E-01   6.177330702840145E-01   6.256109223194173E-01
   6.335920225117491E-01   6.416777496852184E-01   6.498695189686359E-01
   6.581689657869703E-01   6.665775660564179E-01   6.750968366512424E-01
   6.837284197800528E-01   6.924738717626155E-01   7.013348110156556E-01
   7.103129938104473E-01   7.194099700601413E-01   7.286276005787045E-01
   7.379675177025433E-01   7.474316206637681E-01   7.570215766236785E-01
   7.667393208079005E-01   7.765867648051454E-01   7.865657470611396E-01
   7.966782100779923E-01   8.069262014220371E-01   8.173116713921189E-01
   8.278366943525057E-01   8.385033854676180E-01   8.493137726384106E-01
   8.602702231464150E-01   8.713747608809683E-01   8.826297395306639E-01
   8.940374016500812E-01   9.056001207332329E-01   9.173202548097663E-01
   9.292002543503912E-01   9.412425810172493E-01   9.534497979540717E-01
   9.658244196695094E-01   9.783691382493416E-01   9.910865322532274E-01
   1.003979475514718E+00   1.017050597717578E+00   1.030302873146923E+00
   1.043739129016231E+00   1.057362369969489E+00   1.071175569074228E+00
   1.085181843689178E+00   1.099384331096829E+00   1.113786270718457E+00
   1.128390882032576E+00   1.143201568308257E+00   1.158221730695139E+00
   1.173454864769568E+00   1.188904564740419E+00   1.204574450643342E+00
   1.220468281590954E+00   1.236589809509255E+00   1.252943013480007E+00
   1.269531749723143E+00   1.286360200777366E+00   1.303432473968947E+00
   1.320752791758892E+00   1.338325587033580E+00   1.356155180547873E+00
   1.374246236808389E+00   1.392603343538084E+00   1.411231262493146E+00
   1.430134889846215E+00   1.449319165095275E+00   1.468789227729033E+00
   1.488550220752046E+00   1.508607578614274E+00   1.528966671741145E+00
   1.549633169363787E+00   1.570612724865100E+00   1.591911272899935E+00
   1.613534782922926E+00   1.635489375325008E+00   1.657781394603660E+00
   1.680417246854788E+00   1.703403565227333E+00   1.726747116563459E+00
   1.750454809782113E+00   1.774533762452862E+00   1.798991245135880E+00
   1.823834705514983E+00   1.849071783314230E+00   1.874710332864524E+00
   1.900758345675158E+00   1.927224057672575E+00   1.954115880267977E+00
   1.981442471989865E+00   2.009212675096364E+00   2.037435594744338E+00
   2.066120464432828E+00   2.095276873581057E+00   2.124914583137496E+00
   2.155043611990507E+00   2.185674237393499E+00   2.216816965861426E+00
   2.248482623908572E+00   2.280682243490489E+00   2.313427199386396E+00
   2.346729105406638E+00   2.380599862307704E+00   2.415051717565319E+00
   2.450097175951072E+00   2.485749065721350E+00   2.522020555921969E+00
   2.558925117197148E+00   2.596476548883459E+00   2.634689028442125E+00
   2.673577057090768E+00   2.713155465137078E+00   2.753439488515028E+00
   2.794444714509751E+00   2.836187128226399E+00   2.878683032493271E+00
   2.921949195149494E+00   2.966002763506907E+00   3.010861258526262E+00
   3.056542613499289E+00   3.103065231036709E+00   3.150447885022686E+00
   3.198709780598165E+00   3.247870584291292E+00   3.297950364584835E+00
   3.348969671254594E+00   3.400949478752636E+00   3.453911210733025E+00
   3.507876752809295E+00   3.562868454298922E+00   3.618909098915992E+00
   3.676021973270252E+00   3.734230764109327E+00   3.793559642818224E+00
   3.854033287968008E+00   3.915676758936200E+00   3.978515601349869E+00
   4.042575808867610E+00   4.107883806924463E+00   4.174466454836335E+00
   4.242351037968888E+00   4.311565244871730E+00   4.382137177413796E+00
   4.454095315709509E+00   4.527468504837515E+00   4.602285935175928E+00
   4.678577124741679E+00   4.756371909063944E+00   4.835700371739989E+00
   4.916592866818974E+00   4.999079955197601E+00   5.083192362952673E+00
   5.168960959864506E+00   5.256416712133756E+00   5.345590631560469E+00
   5.436513720349723E+00   5.529216907359142E+00   5.623731008737764E+00
   5.720086641708434E+00   5.818314174583179E+00   5.918443609534421E+00
   6.020504543875234E+00   6.124526051386653E+00   6.230536606126492E+00
   6.338563922487737E+00   6.448634964050967E+00   6.560775661950629E+00
   6.675010928082600E+00   6.791364469978703E+00   6.909858577180728E+00
   7.030514104251864E+00   7.153350179667427E+00   7.278384099118682E+00
   7.405631132995410E+00   7.535104278998574E+00   7.666814141915040E+00
   7.800768629771540E+00   7.936972757425906E+00   8.075428409266920E+00
   8.216134059744661E+00   8.359084487100404E+00   8.504270522818615E+00
   8.651678711374871E+00   8.801291013339494E+00   8.953084445471347E+00
   9.107030780224704E+00   9.263096113027757E+00   9.421240507514767E+00
   9.581417608772711E+00   9.743574207965310E+00   9.907649803979666E+00
   1.007357614325406E+01   1.024127678137637E+01   1.041066655477420E+01
   1.058165108403153E+01   1.075412627107568E+01   1.092797774084056E+01
   1.110308025952418E+01   1.127929722353770E+01   1.145648000346915E+01
   1.163446737375716E+01   1.181308491173115E+01   1.199214431781087E+01
   1.217144281523673E+01   1.235076249606942E+01   1.252986963617496E+01
   1.270851406159647E+01   1.288642844815496E+01   1.306332768846136E+01
   1.323890818648169E+01   1.341284723399230E+01   1.358480230802189E+01
   1.375441047296198E+01   1.392128771472710E+01   1.408502835048927E+01
   1.424520444599017E+01   1.440136525358866E+01   1.455303670156076E+01
   1.469972089499862E+01   1.484089571502813E+01   1.497601441901975E+01
   1.510450533325979E+01   1.522577161936874E+01   1.533919107279269E+01
   1.544411606139926E+01   1.553987355315166E+01   1.562576518160751E+01
   1.570106751569676E+01   1.576503239134450E+01   1.581688739851165E+01
   1.585583651800255E+01   1.588106090637893E+01   1.589171984549796E+01
   1.588695188594960E+01   1.586587618026459E+01   1.582759401028278E+01
   1.577119054681634E+01   1.569573685507459E+01   1.560029209697564E+01
   1.548390606076651E+01   1.534562192388563E+01   1.518447931549082E+01
   1.499951768940940E+01   1.478978002759590E+01   1.455431686279076E+01
   1.429219067110819E+01   1.400248064785990E+01   1.368428784992807E+01
   1.333674078363481E+01   1.295900140666566E+01   1.255027158833417E+01
   1.210980007467259E+01   1.163688993806790E+01   1.113090658772029E+01
   1.059128633796246E+01   1.001754561136067E+01   9.409290753377491E+00
   8.766228596463975E+00   8.088177711907463E+00   7.375080498291538E+00
   6.627016116154493E+00   5.844214345852038E+00   5.027070431428058E+00
   4.176160997910301E+00   3.292261105647924E+00   2.376362536834364E+00
   1.429693366868236E+00   4.537389384666710E-01  -5.497357392332560E-01
  -1.578662066021423E+00  -2.630642408553427E+00  -3.702923082846212E+00
  -4.792365847992102E+00  -5.895417956759104E+00  -7.008080958318843E+00
  -8.125878490544878E+00  -9.243823455565320E+00  -1.035638508690080E+01
  -1.145745667172604E+01  -1.254032482168328E+01  -1.359764155851506E+01
  -1.462140074597676E+01  -1.560292081477539E+01  -1.653283615732204E+01
  -1.740110011118287E+01  -1.819700293835515E+01  -1.890920896679165E+01
  -1.952581757471500E+01  -2.003445353436453E+01  -2.042239281892247E+01
  -2.067673068383331E+01  -2.078459936992264E+01  -2.073344310413695E+01
  -2.051135823397294E+01  -2.010750594669148E+01  -1.951260420993657E+01
  -1.871950393080729E+01  -1.772385175252368E+01  -1.652483813285663E+01
  -1.512602398473043E+01  -1.353623204762701E+01  -1.177047979653724E+01
  -9.850918810714811E+00  -7.807730721168257E+00  -5.679911777146435E+00
  -3.515856353372386E+00  -1.373624099819009E+00   6.792544988387075E-01
   2.566613811524972E+00   4.205349144029187E+00   5.508237187615988E+00
   6.388196808044980E+00   6.764358702494675E+00   6.570444218964396E+00
   5.765422632593181E+00   4.352463709461788E+00   2.354516105970642E+00
   2.565555020746099E-01  -2.540215856058872E-02   2.472730235260750E-03
  -3.667683202434851E-04  -1.574310482316281E-04  -2.466686657115534E-04
  -3.026074807997441E-04  -3.581656754411311E-04  -4.101077931359149E-04
  -4.587993611991430E-04  -5.041853790514281E-04  -5.469944472822593E-04
  -5.807562959005332E-04  -6.217165384055717E-04  -6.543791254031794E-04
  -6.846588830530347E-04  -7.120596376549521E-04  -7.367244729814600E-04
  -7.587374435606317E-04  -7.781903469342905E-04  -7.951768185582393E-04
  -8.097916591417766E-04  -8.221299254932328E-04  -8.322885412220644E-04
  -8.403624779805652E-04  -8.464480186083628E-04  -8.506399560569141E-04
  -8.530314215037988E-04  -8.537157688133052E-04  -8.527833678306767E-04
   0.000000000000000E+00   0.000000000000000E+00   0.000000000000000E+00
   0.000000000000000E+00   0.000000000000000E+00   0.000000000000000E+00
   0.000000000000000E+00   0.000000000000000E+00   0.000000000000000E+00
   0.000000000000000E+00   0.000000000000000E+00   0.000000000000000E+00
   0.000000000000000E+00   0.000000000000000E+00   0.000000000000000E+00
   0.000000000000000E+00   0.000000000000000E+00   0.000000000000000E+00
   0.000000000000000E+00   0.000000000000000E+00   0.000000000000000E+00
   0.000000000000000E+00   0.000000000000000E+00   0.000000000000000E+00
   0.000000000000000E+00   0.000000000000000E+00   0.000000000000000E+00
   0.000000000000000E+00   0.000000000000000E+00   0.000000000000000E+00
   0.000000000000000E+00   0.000000000000000E+00   0.000000000000000E+00
   0.000000000000000E+00   0.000000000000000E+00   0.000000000000000E+00
   0.000000000000000E+00   0.000000000000000E+00   0.000000000000000E+00
   0.000000000000000E+00   0.000000000000000E+00   0.000000000000000E+00
   0.000000000000000E+00   0.000000000000000E+00   0.000000000000000E+00
   0.000000000000000E+00   0.000000000000000E+00   0.000000000000000E+00
   0.000000000000000E+00   0.000000000000000E+00   0.000000000000000E+00
   0.000000000000000E+00   0.000000000000000E+00   0.000000000000000E+00
   0.000000000000000E+00   0.000000000000000E+00   0.000000000000000E+00
   0.000000000000000E+00   0.000000000000000E+00   0.000000000000000E+00
   0.000000000000000E+00   0.000000000000000E+00   0.000000000000000E+00
   0.000000000000000E+00   0.000000000000000E+00   0.000000000000000E+00
   0.000000000000000E+00   0.000000000000000E+00   0.000000000000000E+00
   0.000000000000000E+00   0.000000000000000E+00   0.000000000000000E+00
   0.000000000000000E+00   0.000000000000000E+00   0.000000000000000E+00
   0.000000000000000E+00   0.000000000000000E+00   0.000000000000000E+00
   0.000000000000000E+00   0.000000000000000E+00   0.000000000000000E+00
   0.000000000000000E+00   0.000000000000000E+00   0.000000000000000E+00
   0.000000000000000E+00   0.000000000000000E+00   0.000000000000000E+00
   0.000000000000000E+00   0.000000000000000E+00   0.000000000000000E+00
   0.000000000000000E+00   0.000000000000000E+00   0.000000000000000E+00
   0.000000000000000E+00   0.000000000000000E+00   0.000000000000000E+00
   0.000000000000000E+00   0.000000000000000E+00   0.000000000000000E+00
   0.000000000000000E+00   0.000000000000000E+00   0.000000000000000E+00
   0.000000000000000E+00   0.000000000000000E+00   0.000000000000000E+00
   0.000000000000000E+00   0.000000000000000E+00   0.000000000000000E+00
   0.000000000000000E+00   0.000000000000000E+00   0.000000000000000E+00
   0.000000000000000E+00   0.000000000000000E+00   0.000000000000000E+00
   0.000000000000000E+00   0.000000000000000E+00   0.000000000000000E+00
   0.000000000000000E+00   0.000000000000000E+00   0.000000000000000E+00
   0.000000000000000E+00   0.000000000000000E+00   0.000000000000000E+00
   0.000000000000000E+00   0.000000000000000E+00   0.000000000000000E+00
   0.000000000000000E+00   0.000000000000000E+00   0.000000000000000E+00
   0.000000000000000E+00   0.000000000000000E+00   0.000000000000000E+00
   0.000000000000000E+00   0.000000000000000E+00   0.000000000000000E+00
   0.000000000000000E+00   0.000000000000000E+00   0.000000000000000E+00
   0.000000000000000E+00   0.000000000000000E+00   0.000000000000000E+00
   0.000000000000000E+00   0.000000000000000E+00   0.000000000000000E+00
   0.000000000000000E+00   0.000000000000000E+00   0.000000000000000E+00
   0.000000000000000E+00   0.000000000000000E+00   0.000000000000000E+00
   0.000000000000000E+00   0.000000000000000E+00   0.000000000000000E+00
   0.000000000000000E+00   0.000000000000000E+00   0.000000000000000E+00
   0.000000000000000E+00   0.000000000000000E+00   0.000000000000000E+00
   0.000000000000000E+00   0.000000000000000E+00   0.000000000000000E+00
   0.000000000000000E+00   0.000000000000000E+00   0.000000000000000E+00
   0.000000000000000E+00   0.000000000000000E+00   0.000000000000000E+00
   0.000000000000000E+00   0.000000000000000E+00   0.000000000000000E+00
   0.000000000000000E+00   0.000000000000000E+00   0.000000000000000E+00
   0.000000000000000E+00   0.000000000000000E+00   0.000000000000000E+00
   0.000000000000000E+00   0.000000000000000E+00   0.000000000000000E+00
   0.000000000000000E+00   0.000000000000000E+00   0.000000000000000E+00
   0.000000000000000E+00   0.000000000000000E+00   0.000000000000000E+00
   0.000000000000000E+00   0.000000000000000E+00   0.000000000000000E+00
   0.000000000000000E+00   0.000000000000000E+00   0.000000000000000E+00
   0.000000000000000E+00   0.000000000000000E+00   0.000000000000000E+00
   0.000000000000000E+00   0.000000000000000E+00   0.000000000000000E+00
   0.000000000000000E+00   0.000000000000000E+00   0.000000000000000E+00
   0.000000000000000E+00   0.000000000000000E+00   0.000000000000000E+00
   0.000000000000000E+00   0.000000000000000E+00   0.000000000000000E+00
   0.000000000000000E+00   0.000000000000000E+00   0.000000000000000E+00
   0.000000000000000E+00   0.000000000000000E+00   0.000000000000000E+00
   0.000000000000000E+00   0.000000000000000E+00   0.000000000000000E+00
   0.000000000000000E+00   0.000000000000000E+00   0.000000000000000E+00
   0.000000000000000E+00   0.000000000000000E+00   0.000000000000000E+00
   0.000000000000000E+00   0.000000000000000E+00   0.000000000000000E+00
   0.000000000000000E+00   0.000000000000000E+00   0.000000000000000E+00
   0.000000000000000E+00   0.000000000000000E+00   0.000000000000000E+00
   0.000000000000000E+00   0.000000000000000E+00   0.000000000000000E+00
   0.000000000000000E+00   0.000000000000000E+00   0.000000000000000E+00
   0.000000000000000E+00   0.000000000000000E+00   0.000000000000000E+00
   0.000000000000000E+00   0.000000000000000E+00   0.000000000000000E+00
   0.000000000000000E+00   0.000000000000000E+00   0.000000000000000E+00
   0.000000000000000E+00   0.000000000000000E+00   0.000000000000000E+00
   0.000000000000000E+00   0.000000000000000E+00   0.000000000000000E+00
   0.000000000000000E+00   0.000000000000000E+00   0.000000000000000E+00
   0.000000000000000E+00   0.000000000000000E+00   0.000000000000000E+00
   0.000000000000000E+00   0.000000000000000E+00   0.000000000000000E+00
   0.000000000000000E+00   0.000000000000000E+00   0.000000000000000E+00
   0.000000000000000E+00   0.000000000000000E+00   0.000000000000000E+00
   0.000000000000000E+00   0.000000000000000E+00   0.000000000000000E+00
   0.000000000000000E+00   0.000000000000000E+00   0.000000000000000E+00
   0.000000000000000E+00   0.000000000000000E+00   0.000000000000000E+00
   0.000000000000000E+00   0.000000000000000E+00   0.000000000000000E+00
   0.000000000000000E+00   0.000000000000000E+00   0.000000000000000E+00
   0.000000000000000E+00   0.000000000000000E+00   0.000000000000000E+00
   0.000000000000000E+00   0.000000000000000E+00
    </PP_BETA.1>
    <PP_BETA.2 index="2" label="4S" angular_momentum="0" cutoff_radius_index="905" cutoff_radius="1.5000000000000000" ultrasoft_cutoff_radius="1.8999999999999999">
  -7.165040080781421E-04  -7.255165190373052E-04  -7.346423934293904E-04
  -7.438830571908674E-04  -7.160173824603266E-04  -7.584088372886780E-04
  -7.664989133784467E-04  -7.579658143060802E-04  -8.074210485854785E-04
  -7.753519860141389E-04  -8.348470416101317E-04  -8.243929970604275E-04
  -8.200905947252021E-04  -8.219459767989656E-04  -8.344478310657738E-04
  -8.478970893298424E-04  -8.709454817666940E-04  -8.640362579229108E-04
  -9.117810115841993E-04  -8.770862981482483E-04  -9.145284501830969E-04
  -9.478702021740518E-04  -9.350814851547956E-04  -9.327419664454939E-04
  -9.696721145736609E-04  -9.897570041337914E-04  -9.948719669370110E-04
  -9.971072111315607E-04  -1.036036446829765E-03  -1.036597604796227E-03
  -1.041109085712519E-03  -1.038454161349470E-03  -1.096786384588620E-03
  -1.106594571848744E-03  -1.078077634517283E-03  -1.094078599763189E-03
  -1.130321976847447E-03  -1.143368508191488E-03  -1.146875721843417E-03
  -1.158168115753193E-03  -1.191838147127505E-03  -1.224663568047582E-03
  -1.202743492998586E-03  -1.225067889696146E-03  -1.246740374573209E-03
  -1.284954742130945E-03  -1.254522266717427E-03  -1.315104037940468E-03
  -1.317314420746341E-03  -1.311990331279642E-03  -1.329370118421755E-03
  -1.362193822395032E-03  -1.382283823427588E-03  -1.381322019516643E-03
  -1.382230226783590E-03  -1.415948286804580E-03  -1.439725146962709E-03
  -1.476375706784341E-03  -1.482553773724964E-03  -1.503265913029850E-03
  -1.532992337509635E-03  -1.543175522677194E-03  -1.575955725217210E-03
  -1.565803465015447E-03  -1.569698085699914E-03  -1.609235899448891E-03
  -1.601912848175527E-03  -1.681202092029960E-03  -1.673357876937356E-03
  -1.705234985400775E-03  -1.725055446946178E-03  -1.739581659043352E-03
  -1.749663370146773E-03  -1.795785438542433E-03  -1.810710071211016E-03
  -1.823375865060345E-03  -1.849339578512979E-03  -1.878672542518750E-03
  -1.891529920337101E-03  -1.905130878431666E-03  -1.959436378800361E-03
  -1.978269884246889E-03  -1.993505986835065E-03  -2.018705038710794E-03
  -2.040501836184136E-03  -2.068243104579148E-03  -2.104745390742152E-03
  -2.129509810827157E-03  -2.159835730667775E-03  -2.185486523398755E-03
  -2.211953329597754E-03  -2.215620759584438E-03  -2.260061253246515E-03
  -2.305993404754500E-03  -2.306832618528057E-03  -2.344828119329456E-03
  -2.369529013137486E-03  -2.399517204355606E-03  -2.451295176412835E-03
  -2.468635376696657E-03  -2.508008974544618E-03  -2.529493737319852E-03
  -2.560303353004445E-03  -2.585681224825595E-03  -2.633151217966784E-03
  -2.674877858610952E-03  -2.694578850325619E-03  -2.730682618003064E-03
  -2.754973248854278E-03  -2.788648529594970E-03  -2.836781103303737E-03
  -2.861206427147545E-03  -2.912527144057861E-03  -2.944331767583921E-03
  -2.978485203089271E-03  -3.006589072895971E-03  -3.054634496753000E-03
  -3.092984868775864E-03  -3.131594189001552E-03  -3.170589094370749E-03
  -3.209437898620854E-03  -3.241918210339090E-03  -3.287831189824425E-03
  -3.343660718908764E-03  -3.376825227329350E-03  -3.411561564202331E-03
  -3.453917548897040E-03  -3.514389520117150E-03  -3.552146926449895E-03
  -3.594664099128342E-03  -3.635257122748065E-03  -3.676117304103416E-03
  -3.728079282666025E-03  -3.782002561577541E-03  -3.827938661151720E-03
  -3.864735511607043E-03  -3.925273989809214E-03  -3.979812503917074E-03
  -4.030806971002138E-03  -4.061419926830651E-03  -4.133730663360480E-03
  -4.169520609206223E-03  -4.224209970951853E-03  -4.283858228565446E-03
  -4.333752324370249E-03  -4.379703333691337E-03  -4.442526565789251E-03
  -4.500760919006558E-03  -4.551330177331031E-03  -4.608731731782917E-03
  -4.671184262486167E-03  -4.737602968923504E-03  -4.798469798399263E-03
  -4.858348599680651E-03  -4.906078828128935E-03  -4.974850239996748E-03
  -5.032832168345880E-03  -5.091978277204229E-03  -5.163783201530769E-03
  -5.225605186451515E-03  -5.288320481123349E-03  -5.360182448482853E-03
  -5.431187958074679E-03  -5.494267379154233E-03  -5.566760508921298E-03
  -5.635403844100273E-03  -5.704020837511731E-03  -5.788158699076729E-03
  -5.843117041099660E-03  -5.933585509930922E-03  -6.000458647152207E-03
  -6.073880657760378E-03  -6.154696208420157E-03  -6.233445889633760E-03
  -6.303171784644651E-03  -6.383551511496249E-03  -6.471721918278606E-03
  -6.547458178073506E-03  -6.629427450105030E-03  -6.711127339663558E-03
  -6.795739785163513E-03  -6.884287906562925E-03  -6.966850258461221E-03
  -7.060766659874151E-03  -7.142061546337952E-03  -7.238702113853412E-03
  -7.327365915274220E-03  -7.417910923851467E-03  -7.509823620243050E-03
  -7.608299075576419E-03  -7.700330562491031E-03  -7.801786909353847E-03
  -7.898249888956710E-03  -7.995255898408549E-03  -8.095657547739221E-03
  -8.200980664771151E-03  -8.300128513991312E-03  -8.410000103551807E-03
  -8.510476753295415E-03  -8.615006494354427E-03  -8.728268191778576E-03
  -8.834530576686539E-03  -8.952650083833280E-03  -9.058374998044350E-03
  -9.177745557111150E-03  -9.286729804750593E-03  -9.412757738067212E-03
  -9.525776340175596E-03  -9.645377092017626E-03  -9.765680325905801E-03
  -9.888710447067406E-03  -1.001303608631471E-02  -1.014700945533392E-02
  -1.027032362198183E-02  -1.039428211936061E-02  -1.053162672600555E-02
  -1.066095671428241E-02  -1.079670284201922E-02  -1.093171424640715E-02
  -1.107002656870587E-02  -1.120596970145399E-02  -1.134878201685013E-02
  -1.149066395654796E-02  -1.163430237393842E-02  -1.177981896319641E-02
  -1.193191298510304E-02  -1.208155715082221E-02  -1.223460778394087E-02
  -1.238862536181562E-02  -1.254366348310304E-02  -1.270080319460526E-02
  -1.285949822342403E-02  -1.302265407700420E-02  -1.318671170388008E-02
  -1.335070860100485E-02  -1.351896630013028E-02  -1.368841828274603E-02
  -1.386293823149942E-02  -1.403633455027753E-02  -1.420922867424601E-02
  -1.439016018619466E-02  -1.457376254254072E-02  -1.475338479608190E-02
  -1.494122452350810E-02  -1.512734652563508E-02  -1.532015283627530E-02
  -1.551041734686420E-02  -1.570839982265659E-02  -1.590338528604041E-02
  -1.610696213439955E-02  -1.630870888041280E-02  -1.651096944236596E-02
  -1.672307555030694E-02  -1.693206400403968E-02  -1.714304438682002E-02
  -1.736018282573648E-02  -1.757805110063582E-02  -1.780087620394677E-02
  -1.801997836136826E-02  -1.824999020645846E-02  -1.847731529506758E-02
  -1.871121638153828E-02  -1.894831717685619E-02  -1.918465873252106E-02
  -1.942747696672920E-02  -1.967184129504307E-02  -1.991680793272288E-02
  -2.016688218833040E-02  -2.042200961230989E-02  -2.067893889221151E-02
  -2.093765357101995E-02  -2.120334436518090E-02  -2.146880382914973E-02
  -2.174146160662227E-02  -2.201231897172018E-02  -2.228839362673152E-02
  -2.256961185415507E-02  -2.285349286290528E-02  -2.314203328340692E-02
  -2.343188684413611E-02  -2.372708474845897E-02  -2.402489285568887E-02
  -2.432775619266292E-02  -2.463450088643515E-02  -2.494408694505246E-02
  -2.525809186786887E-02  -2.557672398652222E-02  -2.589668133500989E-02
  -2.622351667364620E-02  -2.655144292447420E-02  -2.688613452206190E-02
  -2.722443639671845E-02  -2.756769386587554E-02  -2.791411122825682E-02
  -2.826536858664164E-02  -2.861948189487418E-02  -2.898062684296931E-02
  -2.934494349730477E-02  -2.971313651325302E-02  -3.008844325554327E-02
  -3.046613446031743E-02  -3.085155840111997E-02  -3.123627771688353E-02
  -3.163160002569265E-02  -3.202961037413066E-02  -3.243235706246783E-02
  -3.283929451662515E-02  -3.325296377436038E-02  -3.367195403458356E-02
  -3.409396862366121E-02  -3.452381853587694E-02  -3.495707056610287E-02
  -3.539724694536961E-02  -3.584308814550985E-02  -3.629295800577159E-02
  -3.674949674134020E-02  -3.721155590525749E-02  -3.768017953585856E-02
  -3.815559237833699E-02  -3.863365474498948E-02  -3.912028799379974E-02
  -3.961329609645436E-02  -4.011022274788845E-02  -4.061520764160464E-02
  -4.112537563912610E-02  -4.164321024308948E-02  -4.216807360270947E-02
  -4.269725965759297E-02  -4.323496055617482E-02  -4.377727924728414E-02
  -4.432909695465193E-02  -4.488601795019642E-02  -4.545126825377954E-02
  -4.602369176730337E-02  -4.660212876825232E-02  -4.718768163854103E-02
  -4.778138274428878E-02  -4.838234660271956E-02  -4.899157969121104E-02
  -4.960755467436484E-02  -5.023144019099002E-02  -5.086334474946619E-02
  -5.150336055439242E-02  -5.215020838105522E-02  -5.280793141612472E-02
  -5.347090775284613E-02  -5.414413680990915E-02  -5.482458950115809E-02
  -5.551347370554405E-02  -5.621340842361144E-02  -5.691986251255132E-02
  -5.763628606075821E-02  -5.836073061859048E-02  -5.909491283760770E-02
  -5.983912954277049E-02  -6.059095233087497E-02  -6.135329639804299E-02
  -6.212515697896226E-02  -6.290679840848634E-02  -6.369706116564533E-02
  -6.449933937175834E-02  -6.531072224399948E-02  -6.613165710559965E-02
  -6.696447403455785E-02  -6.780620305203477E-02  -6.865904667072842E-02
  -6.952253500139260E-02  -7.039798395371566E-02  -7.128274217347874E-02
  -7.217985129356430E-02  -7.308754856377497E-02  -7.400717708163107E-02
  -7.493780288422514E-02  -7.588075442413134E-02  -7.683517096961756E-02
  -7.780148668968634E-02  -7.878031532852736E-02  -7.977110360116546E-02
  -8.077497534856271E-02  -8.179100909942605E-02  -8.281996232840827E-02
  -8.386175019338138E-02  -8.491640707845605E-02  -8.598476744746675E-02
  -8.706681819738948E-02  -8.816130722992765E-02  -8.927048235776747E-02
  -9.039389549580701E-02  -9.153023576488373E-02  -9.268238143307261E-02
  -9.384796595512945E-02  -9.502869627160138E-02  -9.622437329273925E-02
  -9.743465026271236E-02  -9.866044291626341E-02  -9.990141924621998E-02
  -1.011583481576164E-01  -1.024307338133892E-01  -1.037191962166828E-01
  -1.050245778178605E-01  -1.063449286440825E-01  -1.076837604619971E-01
  -1.090378972329349E-01  -1.104097594340914E-01  -1.117987069649073E-01
  -1.132048514952464E-01  -1.146290314174259E-01  -1.160714906845737E-01
  -1.175313615082585E-01  -1.190104995506935E-01  -1.205069881537781E-01
  -1.220233421316950E-01  -1.235582233422177E-01  -1.251130105242089E-01
  -1.266869060320550E-01  -1.282806637610383E-01  -1.298946114977788E-01
  -1.315285416757721E-01  -1.331836587650725E-01  -1.348590570869277E-01
  -1.365558005186305E-01  -1.382740255002650E-01  -1.400135493479926E-01
  -1.417748467182074E-01  -1.435589169709788E-01  -1.453650232200951E-01
  -1.471940579028796E-01  -1.490458799354721E-01  -1.509209899654582E-01
  -1.528198664417033E-01  -1.547424805667967E-01  -1.566896297252081E-01
  -1.586610212060764E-01  -1.606573722073152E-01  -1.626785840478657E-01
  -1.647257948989189E-01  -1.667981366747027E-01  -1.688969256547725E-01
  -1.710222429369610E-01  -1.731740733382106E-01  -1.753529469511887E-01
  -1.775597546588772E-01  -1.797934965929144E-01  -1.820560138245719E-01
  -1.843469728271598E-01  -1.866667770392292E-01  -1.890154976508027E-01
  -1.913942851282879E-01  -1.938023492386804E-01  -1.962413984560598E-01
  -1.987109222662307E-01  -2.012114191422132E-01  -2.037435006651851E-01
  -2.063076480581660E-01  -2.089037843363908E-01  -2.115327461350258E-01
  -2.141949269920573E-01  -2.168905410023836E-01  -2.196202974104136E-01
  -2.223842679973309E-01  -2.251830046132426E-01  -2.280169825989447E-01
  -2.308870277500166E-01  -2.337928125794111E-01  -2.367353889760295E-01
  -2.397152319417781E-01  -2.427324371799404E-01  -2.457876540730730E-01
  -2.488814514865219E-01  -2.520141742618076E-01  -2.551864806459250E-01
  -2.583987129939427E-01  -2.616514572677513E-01  -2.649450680076928E-01
  -2.682804977371411E-01  -2.716577520173331E-01  -2.750778203227657E-01
  -2.785407237609068E-01  -2.820474298232778E-01  -2.855984958331206E-01
  -2.891941862168075E-01  -2.928352416488504E-01  -2.965222673545380E-01
  -3.002557761077220E-01  -3.040364397335704E-01  -3.078648714396870E-01
  -3.117415883626879E-01  -3.156671054910927E-01  -3.196421812517176E-01
  -3.236675009087122E-01  -3.277435851598760E-01  -3.318712128412873E-01
  -3.360508465152332E-01  -3.402833299503154E-01  -3.445692084872629E-01
  -3.489093385388724E-01  -3.533041314499954E-01  -3.577545903216421E-01
  -3.622610452503388E-01  -3.668245239992594E-01  -3.714457530459825E-01
  -3.761251986317937E-01  -3.808640743711997E-01  -3.856626678587549E-01
  -3.905218475572738E-01  -3.954426849976880E-01  -4.004255562223396E-01
  -4.054714581257439E-01  -4.105813893397929E-01  -4.157557073047400E-01
  -4.209956378212993E-01  -4.263017118668806E-01  -4.316751259925162E-01
  -4.371164856251220E-01  -4.426267108098294E-01  -4.482066059054404E-01
  -4.538573589789081E-01  -4.595797274111213E-01  -4.653743254851825E-01
  -4.712425169203627E-01  -4.771850408957157E-01  -4.832028069700307E-01
  -4.892969692427123E-01  -4.954682548590625E-01  -5.017179432719701E-01
  -5.080469350805608E-01  -5.144560860371783E-01  -5.209467080675836E-01
  -5.275197214447722E-01  -5.341760637297064E-01  -5.409170335162692E-01
  -5.477435225978553E-01  -5.546567861467189E-01  -5.616579315360006E-01
  -5.687480396293942E-01  -5.759283974269209E-01  -5.831999955915244E-01
  -5.905641093994412E-01  -5.980218777608286E-01  -6.055746240462447E-01
  -6.132236296808493E-01  -6.209698607475325E-01  -6.288149753330359E-01
  -6.367600108915887E-01  -6.448062219830675E-01  -6.529552411391180E-01
  -6.612080231265978E-01  -6.695663169167929E-01  -6.780311741803722E-01
  -6.866042417838685E-01  -6.952867190601069E-01  -7.040803288837516E-01
  -7.129862339923960E-01  -7.220060211049955E-01  -7.311413673141942E-01
  -7.403936037112402E-01  -7.497643366609381E-01  -7.592551379458250E-01
  -7.688676489611588E-01  -7.786033587494856E-01  -7.884640160643137E-01
  -7.984511979268696E-01  -8.085667676930441E-01  -8.188123112871928E-01
  -8.291895222144490E-01  -8.397002420734339E-01  -8.503462436934157E-01
  -8.611293971188090E-01  -8.720514240494026E-01  -8.831143423522292E-01
  -8.943199325083953E-01  -9.056701803403016E-01  -9.171670697215291E-01
  -9.288125581720905E-01  -9.406086231147697E-01  -9.525574173804188E-01
  -9.646610117834271E-01  -9.769214066918295E-01  -9.893408216120463E-01
  -1.001921518343245E+00  -1.014665621949220E+00  -1.027575306518358E+00
  -1.040653025191048E+00  -1.053901038391686E+00  -1.067321662607377E+00
  -1.080917374838194E+00  -1.094690551129879E+00  -1.108643649938543E+00
  -1.122779306077526E+00  -1.137099904273335E+00  -1.151608220412797E+00
  -1.166306752241844E+00  -1.181198334606783E+00  -1.196285520569241E+00
  -1.211571200931196E+00  -1.227058244024889E+00  -1.242749432118700E+00
  -1.258647684148116E+00  -1.274756054350185E+00  -1.291077482823617E+00
  -1.307615070294474E+00  -1.324371973475010E+00  -1.341351248242937E+00
  -1.358556377195754E+00  -1.375990423923398E+00  -1.393656867324907E+00
  -1.411559055347475E+00  -1.429700505380211E+00  -1.448084721698727E+00
  -1.466715330802479E+00  -1.485595979778708E+00  -1.504730448302510E+00
  -1.524122463257271E+00  -1.543775978823312E+00  -1.563694815277827E+00
  -1.583883167080003E+00  -1.604344932318249E+00  -1.625084444733062E+00
  -1.646105862768025E+00  -1.667413572541193E+00  -1.689011928910674E+00
  -1.710905472718594E+00  -1.733098778318919E+00  -1.755596553464557E+00
  -1.778403490165346E+00  -1.801524515469708E+00  -1.824964562569079E+00
  -1.848728689157682E+00  -1.872822084018907E+00  -1.897249975995067E+00
  -1.922017774896673E+00  -1.947130889351314E+00  -1.972595019201194E+00
  -1.998415719440629E+00  -2.024598958785376E+00  -2.051150621270381E+00
  -2.078076742213952E+00  -2.105383626792246E+00  -2.133077449756357E+00
  -2.161164820963648E+00  -2.189652264278720E+00  -2.218546527576493E+00
  -2.247854535342910E+00  -2.277583274014518E+00  -2.307739987199625E+00
  -2.338331932573183E+00  -2.369366737359968E+00  -2.400851959417324E+00
  -2.432795535771049E+00  -2.465205393094308E+00  -2.498089816220386E+00
  -2.531457142146380E+00  -2.565315904336941E+00  -2.599674923583947E+00
  -2.634543105653492E+00  -2.669929648092065E+00  -2.705843922318422E+00
  -2.742295486185384E+00  -2.779294164423945E+00  -2.816849981211547E+00
  -2.854973189393760E+00  -2.893674288621611E+00  -2.932964054058232E+00
  -2.972853439565455E+00  -3.013353710770559E+00  -3.054476360200127E+00
  -3.096233194590198E+00  -3.138636257849342E+00  -3.181697927692809E+00
  -3.225430749192583E+00  -3.269847717458603E+00  -3.314962047292823E+00
  -3.360787282071286E+00  -3.407337292364872E+00  -3.454626240416161E+00
  -3.502668692892030E+00  -3.551479477274853E+00  -3.601073853416096E+00
  -3.651467383280021E+00  -3.702675990863668E+00  -3.754716035781769E+00
  -3.807604201500510E+00  -3.861357578029498E+00  -3.915993681903132E+00
  -3.971530407737276E+00  -4.027986061424542E+00  -4.085379420214650E+00
  -4.143729665756126E+00  -4.203056389153716E+00  -4.263379685894677E+00
  -4.324720087670585E+00  -4.387098619007645E+00  -4.450536697824248E+00
  -4.515056316565506E+00  -4.580679935758496E+00  -4.647430475597105E+00
  -4.715331363132236E+00  -4.784406601868341E+00  -4.854680648917338E+00
  -4.926178488383130E+00  -4.998925667623240E+00  -5.072948221772265E+00
  -5.148272771400656E+00  -5.224926450268725E+00  -5.302936934470807E+00
  -5.382332456701192E+00  -5.463141806361989E+00  -5.545394291797578E+00
  -5.629119822880511E+00  -5.714348781800055E+00  -5.801112125773585E+00
  -5.889441412319343E+00  -5.979368640683589E+00  -6.070926379404824E+00
  -6.164147716699404E+00  -6.259066237568959E+00  -6.355716022709174E+00
  -6.454131636525659E+00  -6.554348094849132E+00  -6.656400874004589E+00
  -6.760325864186541E+00  -6.866159348282594E+00  -6.973937974067042E+00
  -7.083698727458966E+00  -7.195478915752886E+00  -7.309316076775787E+00
  -7.425248001077563E+00  -7.543312648433073E+00  -7.663548090192393E+00
  -7.785992476670600E+00  -7.910683972927472E+00  -8.037660688632798E+00
  -8.166960603297156E+00  -8.298621479824305E+00  -8.432680808206385E+00
  -8.569175691177520E+00  -8.708142773412249E+00  -8.849618087945771E+00
  -8.993636998956731E+00  -9.140234045219813E+00  -9.289442835701493E+00
  -9.441295840754037E+00  -9.595824392529948E+00  -9.753058324096799E+00
  -9.913025974095831E+00  -1.007575394501242E+01  -1.024126682498843E+01
  -1.040958715366486E+01  -1.058073504694738E+01  -1.075472805005535E+01
  -1.093158088389077E+01  -1.111130512188805E+01  -1.129390902513035E+01
  -1.147939714789169E+01  -1.166777007663512E+01  -1.185902411741199E+01
  -1.205315092987274E+01  -1.225013715306847E+01  -1.244996407380557E+01
  -1.265260718396934E+01  -1.285803579054868E+01  -1.306621254674769E+01
  -1.327709305647750E+01  -1.349062531390598E+01  -1.370674923902595E+01
  -1.392539617344801E+01  -1.414648831458328E+01  -1.436993814621081E+01
  -1.459564784104612E+01  -1.482350869022338E+01  -1.505340042047595E+01
  -1.528519055048270E+01  -1.551873373936252E+01  -1.575387106577654E+01
  -1.599042927836422E+01  -1.622822013342187E+01  -1.646703955323323E+01
  -1.670666689077359E+01  -1.694686415669861E+01  -1.718737514943626E+01
  -1.742792468430684E+01  -1.766821775696991E+01  -1.790793866975616E+01
  -1.814675022265658E+01  -1.838429282354474E+01  -1.862018368339352E+01
  -1.885401592410136E+01  -1.908535779023390E+01  -1.931375176540638E+01
  -1.953871382183723E+01  -1.975973258889513E+01  -1.997626861938619E+01
  -2.018775366973392E+01  -2.039359001024718E+01  -2.059314980471322E+01
  -2.078577450972750E+01  -2.097077440246295E+01  -2.114742811657442E+01
  -2.131498229989120E+01  -2.147265137196814E+01  -2.161961732969519E+01
  -2.175502973608991E+01  -2.187800582939076E+01  -2.198763068961966E+01
  -2.208295766963465E+01  -2.216300891471661E+01  -2.222677608744948E+01
  -2.227322129143283E+01  -2.230127819240749E+01  -2.230985335794679E+01
  -2.229782785241935E+01  -2.226405908290383E+01  -2.220738290158852E+01
  -2.212661601270685E+01  -2.202055870080210E+01  -2.188799782008215E+01
  -2.172771020659377E+01  -2.153846639681274E+01  -2.131903473459732E+01
  -2.106818587993939E+01  -2.078469774368324E+01  -2.046736083390419E+01
  -2.011498407573163E+01  -1.972640112048686E+01  -1.930047712199411E+01
  -1.883611607653961E+01  -1.833226868595193E+01  -1.778794079656927E+01
  -1.720220246967369E+01  -1.657419765560411E+01  -1.590315456345360E+01
  -1.518839671956914E+01  -1.442935480677659E+01  -1.362557925195324E+01
  -1.277675372895374E+01  -1.188270949606988E+01  -1.094344074814524E+01
  -9.959120990423742E+00  -8.930120524506947E+00  -7.857025119023547E+00
  -6.740655967824182E+00  -5.582091008832606E+00  -4.382687715376449E+00
  -3.144107419298848E+00  -1.868341305322474E+00  -5.577380977254620E-01
   7.849664429831194E-01   2.156618230715850E+00   3.553611707292220E+00
   4.971854954202087E+00   6.406733127424900E+00   7.853070466196840E+00
   9.305091179485487E+00   1.075637970793527E+01   1.219984100235226E+01
   1.362766177624218E+01   1.503127385218488E+01   1.640132118429915E+01
   1.772763246816336E+01   1.899920176518613E+01   2.020418010041863E+01
   2.132988166494594E+01   2.236280885712990E+01   2.328870133563862E+01
   2.409261489106992E+01   2.475903697290553E+01   2.527204642935733E+01
   2.561552588395098E+01   2.577343582410142E+01   2.573015986813301E+01
   2.547093085484774E+01   2.498234689934313E+01   2.425298552062083E+01
   2.327412188204648E+01   2.204055395532112E+01   2.055153269999294E+01
   1.881178866240953E+01   1.683263754203675E+01   1.463313563010331E+01
   1.224124126155328E+01   9.694920045859288E+00   7.043109220617358E+00
   4.346429553528669E+00   1.677501484985915E+00  -8.793148529628514E-01
  -3.228978700404454E+00  -5.267898616802878E+00  -6.887460534131217E+00
  -7.979345436012620E+00  -8.443093088332919E+00  -8.196531743017346E+00
  -7.189031586102600E+00  -5.425071730225431E+00  -2.933754921350056E+00
  -3.195789689695506E-01   3.162997063020963E-02  -3.091692332574867E-03
   4.448730457108740E-04   1.838370960417345E-04   2.947651317033876E-04
   3.642674329007816E-04   4.333430755270259E-04   4.979579909472856E-04
   5.585637280642950E-04   6.150884054110151E-04   6.684346227108192E-04
   7.105555342605547E-04   7.616449427485499E-04   8.024355447920060E-04
   8.402782809696079E-04   8.745541101054632E-04   9.054388965025798E-04
   9.330352898648413E-04   9.574557295083982E-04   9.788150938953800E-04
   9.972298561197075E-04   1.012816947946072E-03   1.025695746435053E-03
   1.035983329286983E-03   1.043798512275558E-03   1.049258365731833E-03
   1.052477995615540E-03   1.053572868165222E-03   1.052654827935265E-03
   0.000000000000000E+00   0.000000000000000E+00   0.000000000000000E+00
   0.000000000000000E+00   0.000000000000000E+00   0.000000000000000E+00
   0.000000000000000E+00   0.000000000000000E+00   0.000000000000000E+00
   0.000000000000000E+00   0.000000000000000E+00   0.000000000000000E+00
   0.000000000000000E+00   0.000000000000000E+00   0.000000000000000E+00
   0.000000000000000E+00   0.000000000000000E+00   0.000000000000000E+00
   0.000000000000000E+00   0.000000000000000E+00   0.000000000000000E+00
   0.000000000000000E+00   0.000000000000000E+00   0.000000000000000E+00
   0.000000000000000E+00   0.000000000000000E+00   0.000000000000000E+00
   0.000000000000000E+00   0.000000000000000E+00   0.000000000000000E+00
   0.000000000000000E+00   0.000000000000000E+00   0.000000000000000E+00
   0.000000000000000E+00   0.000000000000000E+00   0.000000000000000E+00
   0.000000000000000E+00   0.000000000000000E+00   0.000000000000000E+00
   0.000000000000000E+00   0.000000000000000E+00   0.000000000000000E+00
   0.000000000000000E+00   0.000000000000000E+00   0.000000000000000E+00
   0.000000000000000E+00   0.000000000000000E+00   0.000000000000000E+00
   0.000000000000000E+00   0.000000000000000E+00   0.000000000000000E+00
   0.000000000000000E+00   0.000000000000000E+00   0.000000000000000E+00
   0.000000000000000E+00   0.000000000000000E+00   0.000000000000000E+00
   0.000000000000000E+00   0.000000000000000E+00   0.000000000000000E+00
   0.000000000000000E+00   0.000000000000000E+00   0.000000000000000E+00
   0.000000000000000E+00   0.000000000000000E+00   0.000000000000000E+00
   0.000000000000000E+00   0.000000000000000E+00   0.000000000000000E+00
   0.000000000000000E+00   0.000000000000000E+00   0.000000000000000E+00
   0.000000000000000E+00   0.000000000000000E+00   0.000000000000000E+00
   0.000000000000000E+00   0.000000000000000E+00   0.000000000000000E+00
   0.000000000000000E+00   0.000000000000000E+00   0.000000000000000E+00
   0.000000000000000E+00   0.000000000000000E+00   0.000000000000000E+00
   0.000000000000000E+00   0.000000000000000E+00   0.000000000000000E+00
   0.000000000000000E+00   0.000000000000000E+00   0.000000000000000E+00
   0.000000000000000E+00   0.000000000000000E+00   0.000000000000000E+00
   0.000000000000000E+00   0.000000000000000E+00   0.000000000000000E+00
   0.000000000000000E+00   0.000000000000000E+00   0.000000000000000E+00
   0.000000000000000E+00   0.000000000000000E+00   0.000000000000000E+00
   0.000000000000000E+00   0.000000000000000E+00   0.000000000000000E+00
   0.000000000000000E+00   0.000000000000000E+00   0.000000000000000E+00
   0.000000000000000E+00   0.000000000000000E+00   0.000000000000000E+00
   0.000000000000000E+00   0.000000000000000E+00   0.000000000000000E+00
   0.000000000000000E+00   0.000000000000000E+00   0.000000000000000E+00
   0.000000000000000E+00   0.000000000000000E+00   0.000000000000000E+00
   0.000000000000000E+00   0.000000000000000E+00   0.000000000000000E+00
   0.000000000000000E+00   0.000000000000000E+00   0.000000000000000E+00
   0.000000000000000E+00   0.000000000000000E+00   0.000000000000000E+00
   0.000000000000000E+00   0.000000000000000E+00   0.000000000000000E+00
   0.000000000000000E+00   0.000000000000000E+00   0.000000000000000E+00
   0.000000000000000E+00   0.000000000000000E+00   0.000000000000000E+00
   0.000000000000000E+00   0.000000000000000E+00   0.000000000000000E+00
   0.000000000000000E+00   0.000000000000000E+00   0.000000000000000E+00
   0.000000000000000E+00   0.000000000000000E+00   0.000000000000000E+00
   0.000000000000000E+00   0.000000000000000E+00   0.000000000000000E+00
   0.000000000000000E+00   0.000000000000000E+00   0.000000000000000E+00
   0.000000000000000E+00   0.000000000000000E+00   0.000000000000000E+00
   0.000000000000000E+00   0.000000000000000E+00   0.000000000000000E+00
   0.000000000000000E+00   0.000000000000000E+00   0.000000000000000E+00
   0.000000000000000E+00   0.000000000000000E+00   0.000000000000000E+00
   0.000000000000000E+00   0.000000000000000E+00   0.000000000000000E+00
   0.000000000000000E+00   0.000000000000000E+00   0.000000000000000E+00
   0.000000000000000E+00   0.000000000000000E+00   0.000000000000000E+00
   0.000000000000000E+00   0.000000000000000E+00   0.000000000000000E+00
   0.000000000000000E+00   0.000000000000000E+00   0.000000000000000E+00
   0.000000000000000E+00   0.000000000000000E+00   0.000000000000000E+00
   0.000000000000000E+00   0.000000000000000E+00   0.000000000000000E+00
   0.000000000000000E+00   0.000000000000000E+00   0.000000000000000E+00
   0.000000000000000E+00   0.000000000000000E+00   0.000000000000000E+00
   0.000000000000000E+00   0.000000000000000E+00   0.000000000000000E+00
   0.000000000000000E+00   0.000000000000000E+00   0.000000000000000E+00
   0.000000000000000E+00   0.000000000000000E+00   0.000000000000000E+00
   0.000000000000000E+00   0.000000000000000E+00   0.000000000000000E+00
   0.000000000000000E+00   0.000000000000000E+00   0.000000000000000E+00
   0.000000000000000E+00   0.000000000000000E+00   0.000000000000000E+00
   0.000000000000000E+00   0.000000000000000E+00   0.000000000000000E+00
   0.000000000000000E+00   0.000000000000000E+00   0.000000000000000E+00
   0.000000000000000E+00   0.000000000000000E+00   0.000000000000000E+00
   0.000000000000000E+00   0.000000000000000E+00   0.000000000000000E+00
   0.000000000000000E+00   0.000000000000000E+00   0.000000000000000E+00
   0.000000000000000E+00   0.000000000000000E+00   0.000000000000000E+00
   0.000000000000000E+00   0.000000000000000E+00   0.000000000000000E+00
   0.000000000000000E+00   0.000000000000000E+00   0.000000000000000E+00
   0.000000000000000E+00   0.000000000000000E+00   0.000000000000000E+00
   0.000000000000000E+00   0.000000000000000E+00   0.000000000000000E+00
   0.000000000000000E+00   0.000000000000000E+00   0.000000000000000E+00
   0.000000000000000E+00   0.000000000000000E+00   0.000000000000000E+00
   0.000000000000000E+00   0.000000000000000E+00   0.000000000000000E+00
   0.000000000000000E+00   0.000000000000000E+00   0.000000000000000E+00
   0.000000000000000E+00   0.000000000000000E+00   0.000000000000000E+00
   0.000000000000000E+00   0.000000000000000E+00   0.000000000000000E+00
   0.000000000000000E+00   0.000000000000000E+00   0.000000000000000E+00
   0.000000000000000E+00   0.000000000000000E+00   0.000000000000000E+00
   0.000000000000000E+00   0.000000000000000E+00   0.000000000000000E+00
   0.000000000000000E+00   0.000000000000000E+00   0.000000000000000E+00
   0.000000000000000E+00   0.000000000000000E+00   0.000000000000000E+00
   0.000000000000000E+00   0.000000000000000E+00   0.000000000000000E+00
   0.000000000000000E+00   0.000000000000000E+00   0.000000000000000E+00
   0.000000000000000E+00   0.000000000000000E+00   0.000000000000000E+00
   0.000000000000000E+00   0.000000000000000E+00   0.000000000000000E+00
   0.000000000000000E+00   0.000000000000000E+00
    </PP_BETA.2>
    <PP_BETA.3 index="3" label="4P" angular_momentum="1" cutoff_radius_index="905" cutoff_radius="1.5000000000000000" ultrasoft_cutoff_radius="1.8999999999999999">
  -1.532961389752947E-07  -1.571768492080397E-07  -1.611558000879777E-07
  -1.652354785889294E-07  -1.694184346427580E-07  -1.737072827331573E-07
  -1.781047035297921E-07  -1.826134455638020E-07  -1.872363269457226E-07
  -1.919762371268992E-07  -1.968361387054846E-07  -2.018190692781607E-07
  -2.069281433387350E-07  -2.121665542248013E-07  -2.175375761136798E-07
  -2.230445660688823E-07  -2.286909661383887E-07  -2.344803055060383E-07
  -2.404162026973825E-07  -2.465023678413859E-07  -2.527426049893712E-07
  -2.591408144926805E-07  -2.657009954405193E-07  -2.724272481595176E-07
  -2.793237767765681E-07  -2.863948918465418E-07  -2.936450130465256E-07
  -3.010786719382633E-07  -3.087005148005288E-07  -3.165153055332053E-07
  -3.245279286348738E-07  -3.327433922557829E-07  -3.411668313281108E-07
  -3.498035107754606E-07  -3.586588288036092E-07  -3.677383202745632E-07
  -3.770476601660278E-07  -3.865926671184516E-07  -3.963793070718650E-07
  -4.064136969947900E-07  -4.167021087075421E-07  -4.272509728023229E-07
  -4.380668826625500E-07  -4.491565985839337E-07  -4.605270519998869E-07
  -4.721853498138903E-07  -4.841387788415429E-07  -4.963948103650564E-07
  -5.089611048030512E-07  -5.218455164985663E-07  -5.350560986282807E-07
  -5.486011082360074E-07  -5.624890113936189E-07  -5.767284884926131E-07
  -5.913284396696457E-07  -6.062979903694005E-07  -6.216464970482899E-07
  -6.373835530225497E-07  -6.535189944643585E-07  -6.700629065497935E-07
  -6.870256297623644E-07  -7.044177663561662E-07  -7.222501869826330E-07
  -7.405340374850446E-07  -7.592807458650455E-07  -7.785020294255145E-07
  -7.982099020942620E-07  -8.184166819331189E-07  -8.391349988371373E-07
  -8.603778024286800E-07  -8.821583701513548E-07  -9.044903155688480E-07
  -9.273875968738476E-07  -9.508645256123638E-07  -9.749357756289174E-07
  -9.996163922381618E-07  -1.024921801628700E-06  -1.050867820504946E-06
  -1.077470665973091E-06  -1.104746965677319E-06  -1.132713768192610E-06
  -1.161388553680685E-06  -1.190789244815633E-06  -1.220934217986209E-06
  -1.251842314781647E-06  -1.283532853768267E-06  -1.316025642564221E-06
  -1.349340990219890E-06  -1.383499719911688E-06  -1.418523181957261E-06
  -1.454433267160083E-06  -1.491252420491957E-06  -1.529003655121829E-06
  -1.567710566799777E-06  -1.607397348605123E-06  -1.648088806067892E-06
  -1.689810372673063E-06  -1.732588125757348E-06  -1.776448802808346E-06
  -1.821419818176372E-06  -1.867529280209288E-06  -1.914806008821152E-06
  -1.963279553505593E-06  -2.012980211805211E-06  -2.063939048248525E-06
  -2.116187913766302E-06  -2.169759465599424E-06  -2.224687187710755E-06
  -2.281005411713647E-06  -2.338749338330383E-06  -2.397955059393713E-06
  -2.458659580405456E-06  -2.520900843666115E-06  -2.584717751990076E-06
  -2.650150193021120E-06  -2.717239064163483E-06  -2.786026298144045E-06
  -2.856554889221720E-06  -2.928868920060175E-06  -3.003013589280974E-06
  -3.079035239714181E-06  -3.156981387364117E-06  -3.236900751108424E-06
  -3.318843283148912E-06  -3.402860200233345E-06  -3.489004015667556E-06
  -3.577328572137952E-06  -3.667889075364959E-06  -3.760742128608368E-06
  -3.855945768046232E-06  -3.953559499049346E-06  -4.053644333374023E-06
  -4.156262827296458E-06  -4.261479120712365E-06  -4.369358977226561E-06
  -4.479969825257309E-06  -4.593380800181259E-06  -4.709662787545338E-06
  -4.828888467372449E-06  -4.951132359588947E-06  -5.076470870601879E-06
  -5.204982341055539E-06  -5.336747094796920E-06  -5.471847489080665E-06
  -5.610367966045047E-06  -5.752395105491085E-06  -5.898017678997586E-06
  -6.047326705406426E-06  -6.200415507712155E-06  -6.357379771391919E-06
  -6.518317604211988E-06  -6.683329597548307E-06  -6.852518889259252E-06
  -7.025991228150288E-06  -7.203855040070273E-06  -7.386221495681144E-06
  -7.573204579943206E-06  -7.764921163359359E-06  -7.961491075022972E-06
  -8.163037177514955E-06  -8.369685443696845E-06  -8.581565035447845E-06
  -8.798808384395183E-06  -9.021551274688232E-06  -9.249932927867926E-06
  -9.484096089884712E-06  -9.724187120319325E-06  -9.970356083862389E-06
  -1.022275684410956E-05  -1.048154715973128E-05  -1.074688878307693E-05
  -1.101894756127546E-05  -1.129789353989505E-05  -1.158390106922703E-05
  -1.187714891326058E-05  -1.217782036141570E-05  -1.248610334310536E-05
  -1.280219054519712E-05  -1.312627953244870E-05  -1.345857287099254E-05
  -1.379927825494558E-05  -1.414860863622544E-05  -1.450678235765167E-05
  -1.487402328941730E-05  -1.525056096901483E-05  -1.563663074470432E-05
  -1.603247392261408E-05  -1.643833791756414E-05  -1.685447640770889E-05
  -1.728114949309393E-05  -1.771862385822672E-05  -1.816717293876325E-05
  -1.862707709241373E-05  -1.909862377417540E-05  -1.958210771600111E-05
  -2.007783111101572E-05  -2.058610380239716E-05  -2.110724347703768E-05
  -2.164157586410874E-05  -2.218943493865179E-05  -2.275116313032340E-05
  -2.332711153742496E-05  -2.391764014634973E-05  -2.452311805658641E-05
  -2.514392371141770E-05  -2.578044513445915E-05  -2.643308017218686E-05
  -2.710223674260351E-05  -2.778833309020041E-05  -2.849179804737364E-05
  -2.921307130245720E-05  -2.995260367454313E-05  -3.071085739525696E-05
  -3.148830639766690E-05  -3.228543661250806E-05  -3.310274627190307E-05
  -3.394074622077397E-05  -3.479996023613569E-05  -3.591822224200780E-05
  -3.683219805721520E-05  -3.745945233387901E-05  -3.840349552204604E-05
  -3.937832291711174E-05  -4.037892211610210E-05  -4.140033366113093E-05
  -4.245102538658546E-05  -4.352700683185850E-05  -4.462841109917701E-05
  -4.576234730982448E-05  -4.692293401884054E-05  -4.810917938768923E-05
  -4.933343758788908E-05  -5.058082147979060E-05  -5.186338950956607E-05
  -5.317366452827708E-05  -5.452441548837349E-05  -5.590476422087296E-05
  -5.732291771077549E-05  -5.877412535157031E-05  -6.025887574742921E-05
  -6.179036631092348E-05  -6.335517575602466E-05  -6.496201004679874E-05
  -6.660657369986071E-05  -6.829398952690874E-05  -7.002853661605013E-05
  -7.179698640957658E-05  -7.362126069419318E-05  -7.548003496078584E-05
  -7.739350280056619E-05  -7.935489845957834E-05  -8.136719037833890E-05
  -8.342673921159433E-05  -8.553963701207604E-05  -8.770726177725874E-05
  -8.992711927897283E-05  -9.220708360443486E-05  -9.454283702361283E-05
  -9.693861441711091E-05  -9.939017107338081E-05  -1.019105803256012E-04
  -1.044903921920825E-04  -1.071382074619580E-04  -1.098489891560539E-04
  -1.126349532391518E-04  -1.154852014697707E-04  -1.184124973932270E-04
  -1.214088028845558E-04  -1.244818228250285E-04  -1.276364377150299E-04
  -1.308718152405806E-04  -1.341849664124488E-04  -1.375829446152223E-04
  -1.410667147167459E-04  -1.446368849068610E-04  -1.483001176180200E-04
  -1.520573764123973E-04  -1.559070379741061E-04  -1.598600596422854E-04
  -1.639023306649462E-04  -1.680540954166875E-04  -1.723102762562403E-04
  -1.766745811276537E-04  -1.811487882330883E-04  -1.857365034544887E-04
  -1.904384113416869E-04  -1.952616367824698E-04  -2.002025236835468E-04
  -2.052773229551078E-04  -2.104734887171437E-04  -2.157999819262964E-04
  -2.212685597492892E-04  -2.268717038301762E-04  -2.326138759925678E-04
  -2.385057352101436E-04  -2.445424724807025E-04  -2.507361951393991E-04
  -2.570852227702649E-04  -2.635942136885836E-04  -2.702708675114409E-04
  -2.771106718377442E-04  -2.841289288971530E-04  -2.913198900302842E-04
  -2.986998825607679E-04  -3.062602134466033E-04  -3.140160677659286E-04
  -3.219651821822263E-04  -3.301176090764039E-04  -3.384808203873478E-04
  -3.470452842413508E-04  -3.558371172190590E-04  -3.648421563698491E-04
  -3.740840591437565E-04  -3.835504261780771E-04  -3.932629383178389E-04
  -4.032208962377235E-04  -4.134316272428515E-04  -4.238952253505174E-04
  -4.346310787509289E-04  -4.456313919658744E-04  -4.569205247642360E-04
  -4.684815884461301E-04  -4.803441546834394E-04  -4.925035504282807E-04
  -5.049780819883845E-04  -5.177598222228441E-04  -5.308688128976466E-04
  -5.443089173220125E-04  -5.580884444045604E-04  -5.722178269414423E-04
  -5.867043008166081E-04  -6.015581789295061E-04  -6.167917382417943E-04
  -6.324035074111558E-04  -6.484181763379360E-04  -6.648302713734219E-04
  -6.816650543604551E-04  -6.989173052841819E-04  -7.166184260168837E-04
  -7.347594058004720E-04  -7.533638683253352E-04  -7.724361683717346E-04
  -7.919907584253696E-04  -8.120421978226227E-04  -8.325999783967463E-04
  -8.536805261835766E-04  -8.752897956394575E-04  -8.974481072294097E-04
  -9.201707880783444E-04  -9.434625864532453E-04  -9.673517558785949E-04
  -9.918391887094860E-04  -1.016950800303622E-03  -1.042692990464535E-03
  -1.069095163086520E-03  -1.096157413621246E-03  -1.123911873434703E-03
  -1.152362791978197E-03  -1.181533874300833E-03  -1.211452392253044E-03
  -1.242116888462442E-03  -1.273564311797013E-03  -1.305807357009482E-03
  -1.338861904213092E-03  -1.372761663243467E-03  -1.407510783823510E-03
  -1.443144020216027E-03  -1.479683523763185E-03  -1.517138150756768E-03
  -1.555546551399814E-03  -1.594926060187253E-03  -1.635304350722769E-03
  -1.676704374701526E-03  -1.719150555149596E-03  -1.762677199664399E-03
  -1.807294763003398E-03  -1.853051549916064E-03  -1.899962495545939E-03
  -1.948061809766364E-03  -1.997382432338291E-03  -2.047945999120889E-03
  -2.099791800223162E-03  -2.152949998040743E-03  -2.207450891587233E-03
  -2.263335505263687E-03  -2.320632014154656E-03  -2.379381486180485E-03
  -2.439617164411174E-03  -2.501378693263417E-03  -2.564701148491201E-03
  -2.629627163002850E-03  -2.696201136988107E-03  -2.764461519379945E-03
  -2.834439030464053E-03  -2.906198709488488E-03  -2.979769588581687E-03
  -3.055206806719189E-03  -3.132547501762676E-03  -3.211850713593700E-03
  -3.293166461025652E-03  -3.376527170211391E-03  -3.462012424233461E-03
  -3.549651033650878E-03  -3.639515054761341E-03  -3.731648234772560E-03
  -3.826117748267556E-03  -3.922981551283462E-03  -4.022289628001968E-03
  -4.124120936232364E-03  -4.228523606964005E-03  -4.335572684851827E-03
  -4.445328594617715E-03  -4.557865755738848E-03  -4.673249619482504E-03
  -4.791550323632612E-03  -4.912855540226045E-03  -5.037226224754492E-03
  -5.164747473432610E-03  -5.295493741592716E-03  -5.429556349525973E-03
  -5.567005435400896E-03  -5.707937164271724E-03  -5.852439182814202E-03
  -6.000593657288139E-03  -6.152502780810441E-03  -6.308255950863706E-03
  -6.467956488032535E-03  -6.631693165575110E-03  -6.799576886054474E-03
  -6.971711631349416E-03  -7.148205548803403E-03  -7.329163673098577E-03
  -7.514708935422922E-03  -7.704945024892447E-03  -7.899998574000353E-03
  -8.099992907245689E-03  -8.305047858699559E-03  -8.515294663041059E-03
  -8.730865949404719E-03  -8.951888184348437E-03  -9.178511096501404E-03
  -9.410871990846087E-03  -9.649112379235200E-03  -9.893383644100986E-03
  -1.014383984296031E-02  -1.040063881000633E-02  -1.066393458455447E-02
  -1.093389818210223E-02  -1.121069569909988E-02  -1.149450154992640E-02
  -1.178549050247629E-02  -1.208384647167178E-02  -1.238975595346929E-02
  -1.270340919768970E-02  -1.302500805081480E-02  -1.335474048209698E-02
  -1.369282508350612E-02  -1.403946539183183E-02  -1.439488328838875E-02
  -1.475929758702869E-02  -1.513294107612889E-02  -1.551604084340835E-02
  -1.590884132416259E-02  -1.631158218148769E-02  -1.672451676225084E-02
  -1.714791669898970E-02  -1.758202325293820E-02  -1.802712239651247E-02
  -1.848349699078239E-02  -1.895141697515795E-02  -1.943118579639763E-02
  -1.992310135855557E-02  -2.042746851694938E-02  -2.094460658157032E-02
  -2.147483340434111E-02  -2.201848536018089E-02  -2.257590492280034E-02
  -2.314742740370501E-02  -2.373342504154580E-02  -2.433425764304550E-02
  -2.495029867887424E-02  -2.558194071016945E-02  -2.622956848642011E-02
  -2.689359592479926E-02  -2.757443019414704E-02  -2.827249960535683E-02
  -2.898825279651887E-02  -2.972211526729723E-02  -3.047455883541239E-02
  -3.124605404426800E-02  -3.203708066900396E-02  -3.284813096351860E-02
  -3.367972091298513E-02  -3.453235541300279E-02  -3.540658682392206E-02
  -3.630294302362824E-02  -3.722199332186460E-02  -3.816431232662670E-02
  -3.913049139796670E-02  -4.012112518073352E-02  -4.113684487266145E-02
  -4.217827822687725E-02  -4.324607923475315E-02  -4.434090891117248E-02
  -4.546346246766553E-02  -4.661443565898876E-02  -4.779452733862399E-02
  -4.900455904540613E-02  -5.024515382853634E-02  -5.151717254378091E-02
  -5.282151602307483E-02  -5.415854541475573E-02  -5.552993264635631E-02
  -5.693559187568342E-02  -5.837709822642712E-02  -5.985501068526833E-02
  -6.137011766113148E-02  -6.292434701947197E-02  -6.451683375215544E-02
  -6.615046094621696E-02  -6.782526919533971E-02  -6.954223169334972E-02
  -7.130295998287928E-02  -7.310811337051626E-02  -7.495895078127401E-02
  -7.685673077615118E-02  -7.880248896752140E-02  -8.079772043415379E-02
  -8.284308967338860E-02  -8.494075410431590E-02  -8.709087885320210E-02
  -8.929607158958575E-02  -9.155673250878649E-02  -9.387477682775780E-02
  -9.625141492976752E-02  -9.868830128129469E-02  -1.011870259958614E-01
  -1.037486400159201E-01  -1.063755406002254E-01  -1.090686548193032E-01
  -1.118300659611724E-01  -1.146615028043459E-01  -1.175644664030530E-01
  -1.205409486838648E-01  -1.235929685521651E-01  -1.267222161321941E-01
  -1.299304550427259E-01  -1.332202374671541E-01  -1.365932072825947E-01
  -1.400515763389586E-01  -1.435976016096434E-01  -1.472332954322311E-01
  -1.509611741416068E-01  -1.547832967519163E-01  -1.587025090061007E-01
  -1.627205683660842E-01  -1.668407209987708E-01  -1.710649992808861E-01
  -1.753964053555899E-01  -1.798373971307392E-01  -1.843908539184995E-01
  -1.890597905299545E-01  -1.938465960393625E-01  -1.987550828960092E-01
  -2.037876905527318E-01  -2.089475447356317E-01  -2.142385571572123E-01
  -2.196629790229541E-01  -2.252251617042518E-01  -2.309281980545850E-01
  -2.367759106420391E-01  -2.427708455585305E-01  -2.489187374774553E-01
  -2.552214286550958E-01  -2.616846140517188E-01  -2.683104435298034E-01
  -2.751052387374171E-01  -2.820712705900841E-01  -2.892143773408007E-01
  -2.965379625136144E-01  -3.040472692620937E-01  -3.117466150815940E-01
  -3.196411056988304E-01  -3.277360056511469E-01  -3.360352471878603E-01
  -3.445446522390054E-01  -3.532709257744147E-01  -3.622164145914426E-01
  -3.713903664991163E-01  -3.807950798202078E-01  -3.904388716198532E-01
  -4.003276256285391E-01  -4.104653073680762E-01  -4.208614642424600E-01
  -4.315196719710115E-01  -4.424492367815636E-01  -4.536543677687308E-01
  -4.651445122921389E-01  -4.769253792764805E-01  -4.890043764865841E-01
  -5.013901200134740E-01  -5.140896219465261E-01  -5.271101908050531E-01
  -5.404618765999025E-01  -5.541508089292853E-01  -5.681871877500715E-01
  -5.825796184547691E-01  -5.973361376524293E-01  -6.124669832002958E-01
  -6.279810811958999E-01  -6.438890116211340E-01  -6.601992321535652E-01
  -6.769235644959650E-01  -6.940715135216369E-01  -7.116543736960947E-01
  -7.296824494723184E-01  -7.481680427577704E-01  -7.671219564060978E-01
  -7.865564787077393E-01  -8.064835979514449E-01  -8.269159635810750E-01
  -8.478663551877208E-01  -8.693479957435635E-01  -8.913739998718020E-01
  -9.139589107096953E-01  -9.371160898975894E-01  -9.608606860344988E-01
  -9.852072816267361E-01  -1.010171371229312E+00  -1.035768314010069E+00
  -1.062014693418252E+00  -1.088926355386961E+00  -1.116520912335474E+00
  -1.144814961609137E+00  -1.173826903729504E+00  -1.203574550922665E+00
  -1.234076818991257E+00  -1.265352760083207E+00  -1.297421968246047E+00
  -1.330304973547868E+00  -1.364021712290874E+00  -1.398594208072906E+00
  -1.434043585022112E+00  -1.470392344048026E+00  -1.507663300863257E+00
  -1.545880039858577E+00  -1.585066121525353E+00  -1.625246898522022E+00
  -1.666446827545199E+00  -1.708692543515490E+00  -1.752009985816176E+00
  -1.796426850170224E+00  -1.841970659459172E+00  -1.888670576362211E+00
  -1.936555318593784E+00  -1.985655391473648E+00  -2.036001669532176E+00
  -2.087625666985906E+00  -2.140559779392682E+00  -2.194837448919984E+00
  -2.250492688695461E+00  -2.307560515818519E+00  -2.366076699546415E+00
  -2.426078159277015E+00  -2.487602451673666E+00  -2.550688307119081E+00
  -2.615375350411533E+00  -2.681704130367013E+00  -2.749716384513132E+00
  -2.819454709199839E+00  -2.890963040106993E+00  -2.964285996433762E+00
  -3.039469861387090E+00  -3.116561522464941E+00  -3.195609493318923E+00
  -3.276663195154644E+00  -3.359773549360334E+00  -3.444992443753794E+00
  -3.532373253105995E+00  -3.621970792220424E+00  -3.713840947303559E+00
  -3.808041141435325E+00  -3.904630285838593E+00  -4.003668643838790E+00
  -4.105218013920858E+00  -4.209341680656930E+00  -4.316104462976419E+00
  -4.425572946546389E+00  -4.537815050931989E+00  -4.652900582865236E+00
  -4.770900985138667E+00  -4.891889354920707E+00  -5.015940656207597E+00
  -5.143131621434286E+00  -5.273540771545797E+00  -5.407248583165703E+00
  -5.544337433351409E+00  -5.684891520698379E+00  -5.828997292299292E+00
  -5.976742957202610E+00  -6.128218916814390E+00  -6.283517617891100E+00
  -6.442733784062341E+00  -6.605964021678567E+00  -6.773307409093128E+00
  -6.944865181219207E+00  -7.120740755423412E+00  -7.301040009630654E+00
  -7.485870954010842E+00  -7.675344228120423E+00  -7.869572552637301E+00
  -8.068671370522317E+00  -8.272758369838947E+00  -8.481953714605176E+00
  -8.696380240722704E+00  -8.916162983849439E+00  -9.141429791256833E+00
  -9.372310863041214E+00  -9.608938949895730E+00  -9.851449442053166E+00
  -1.009998011226746E+01  -1.035467140861563E+01  -1.061566615191288E+01
  -1.088310983801858E+01  -1.115715021018458E+01  -1.143793766944059E+01
  -1.172562486139415E+01  -1.202036686500543E+01  -1.232232102623837E+01
  -1.263164691347986E+01  -1.294850626560911E+01  -1.327306283528807E+01
  -1.360548242115722E+01  -1.394593254700582E+01  -1.429458255711732E+01
  -1.465160327592072E+01  -1.501716702043532E+01  -1.539144724247581E+01
  -1.577461850396142E+01  -1.616685610173919E+01  -1.656833595046650E+01
  -1.697923422876856E+01  -1.739972715423789E+01  -1.782999058577894E+01
  -1.827019979935156E+01  -1.872052895173688E+01  -1.918115081550891E+01
  -1.965223624645114E+01  -2.013395373995394E+01  -2.062646888284004E+01
  -2.112994381222612E+01  -2.164453660936411E+01  -2.217040059254876E+01
  -2.270768372555170E+01  -2.325652772435546E+01  -2.381706734319118E+01
  -2.438942945369089E+01  -2.497373218242069E+01  -2.557008376695632E+01
  -2.617858168110666E+01  -2.679931134623553E+01  -2.743234500086407E+01
  -2.807774038774122E+01  -2.873553936991416E+01  -2.940576651014871E+01
  -3.008842748737095E+01  -3.078350749667240E+01  -3.149096948883212E+01
  -3.221075232763911E+01  -3.294276892254797E+01  -3.368690411697025E+01
  -3.444301255292831E+01  -3.521091648519004E+01  -3.599040328229279E+01
  -3.678122308657260E+01  -3.758308607931244E+01  -3.839565985352857E+01
  -3.921856652237520E+01  -4.005137977625026E+01  -4.089362182022194E+01
  -4.174476012599564E+01  -4.260420421439545E+01  -4.347130212608300E+01
  -4.434533700236682E+01  -4.522552336388162E+01  -4.611100345521345E+01
  -4.700084340166694E+01  -4.789402934587127E+01  -4.878946347188185E+01
  -4.968596005740505E+01  -5.058224140432361E+01  -5.147693379959657E+01
  -5.236856350764333E+01  -5.325555271161880E+01  -5.413621563027618E+01
  -5.500875457357699E+01  -5.587125624522611E+01  -5.672168814581892E+01
  -5.755789512925350E+01  -5.837759630595536E+01  -5.917838209477247E+01
  -5.995771171527900E+01  -6.071291104701356E+01  -6.144117087884297E+01
  -6.213954574853341E+01  -6.280495334201856E+01  -6.343417451523209E+01
  -6.402385410782637E+01  -6.457050247986228E+01  -6.507049806849926E+01
  -6.552009081100721E+01  -6.591540669993628E+01  -6.625245355801798E+01
  -6.652712797719579E+01  -6.673522373836255E+01  -6.687244161548125E+01
  -6.693440083746151E+01  -6.691665215684054E+01  -6.681469274718648E+01
  -6.662398298181017E+01  -6.633996513795546E+01  -6.595808423118967E+01
  -6.547381099136283E+01  -6.488266704211725E+01  -6.418025243079586E+01
  -6.336227551000206E+01  -6.242458523385784E+01  -6.136320594615950E+01
  -6.017437457668740E+01  -5.885458043172372E+01  -5.740060737235757E+01
  -5.580957845375275E+01  -5.407900302771742E+01  -5.220682609122412E+01
  -5.019147990883334E+01  -4.803193773772324E+01  -4.572776952704078E+01
  -4.327919941991900E+01  -4.068716485887592E+01  -3.795337707739799E+01
  -3.508038273107690E+01  -3.207162636323380E+01  -2.893151345012859E+01
  -2.566547357480863E+01  -2.228002347047700E+01  -1.878282937245237E+01
  -1.518276829531356E+01  -1.148998759907138E+01  -7.715962281514123E+00
  -3.873549226036516E+00   2.296241409786148E-02   3.957805735550792E+00
   7.913696577557687E+00   1.187180156212466E+01   1.581171516821510E+01
   1.971144801834289E+01   2.354742868899130E+01   2.729452200023245E+01
   3.092606721161574E+01   3.441394028902359E+01   3.772864504065824E+01
   4.083943892008587E+01   4.371450004322929E+01   4.632114310283399E+01
   4.862609283526604E+01   5.059582472469597E+01   5.219698365519882E+01
   5.339689196704997E+01   5.416415909176301E+01   5.446940490780700E+01
   5.428610878480387E+01   5.359159483559876E+01   5.236816170841601E+01
   5.060436142544971E+01   4.829642616663686E+01   4.544983399727865E+01
   4.208099385496067E+01   3.821901587086022E+01   3.390751514200706E+01
   2.920637400874698E+01   2.419335979622728E+01   1.896546051372494E+01
   1.363975984040424E+01   8.353623836341059E+00   3.263914611099068E+00
  -1.455120430136027E+00  -5.615712307846664E+00  -9.022704896507694E+00
  -1.148258303342071E+01  -1.281612575226558E+01  -1.287569309419976E+01
  -1.156704534485144E+01  -8.888284245682776E+00  -4.877538483269866E+00
  -5.390565524139342E-01   5.217961351150180E-02  -6.366925517332873E-03
  -4.893014291143557E-04  -9.972953521761576E-04  -8.709417951636549E-04
  -8.066068541151390E-04  -7.355953641433475E-04  -6.650418747871681E-04
  -5.945347449746712E-04  -5.243861103970388E-04  -4.548136619104177E-04
  -3.860212218174187E-04  -3.181927912870186E-04  -2.514930891037397E-04
  -1.860707421446393E-04  -1.220569697952113E-04  -5.956891540290698E-05
   1.294736619515159E-06   6.044423773099526E-05   1.178074785911090E-04
   1.733196422851956E-04   2.269293853293330E-04   2.785954773268469E-04
   3.282849963207181E-04   3.759755321005992E-04   4.216498243022374E-04
   4.653035312039220E-04   5.068866106554943E-04   5.468815067884208E-04
   0.000000000000000E+00   0.000000000000000E+00   0.000000000000000E+00
   0.000000000000000E+00   0.000000000000000E+00   0.000000000000000E+00
   0.000000000000000E+00   0.000000000000000E+00   0.000000000000000E+00
   0.000000000000000E+00   0.000000000000000E+00   0.000000000000000E+00
   0.000000000000000E+00   0.000000000000000E+00   0.000000000000000E+00
   0.000000000000000E+00   0.000000000000000E+00   0.000000000000000E+00
   0.000000000000000E+00   0.000000000000000E+00   0.000000000000000E+00
   0.000000000000000E+00   0.000000000000000E+00   0.000000000000000E+00
   0.000000000000000E+00   0.000000000000000E+00   0.000000000000000E+00
   0.000000000000000E+00   0.000000000000000E+00   0.000000000000000E+00
   0.000000000000000E+00   0.000000000000000E+00   0.000000000000000E+00
   0.000000000000000E+00   0.000000000000000E+00   0.000000000000000E+00
   0.000000000000000E+00   0.000000000000000E+00   0.000000000000000E+00
   0.000000000000000E+00   0.000000000000000E+00   0.000000000000000E+00
   0.000000000000000E+00   0.000000000000000E+00   0.000000000000000E+00
   0.000000000000000E+00   0.000000000000000E+00   0.000000000000000E+00
   0.000000000000000E+00   0.000000000000000E+00   0.000000000000000E+00
   0.000000000000000E+00   0.000000000000000E+00   0.000000000000000E+00
   0.000000000000000E+00   0.000000000000000E+00   0.000000000000000E+00
   0.000000000000000E+00   0.000000000000000E+00   0.000000000000000E+00
   0.000000000000000E+00   0.000000000000000E+00   0.000000000000000E+00
   0.000000000000000E+00   0.000000000000000E+00   0.000000000000000E+00
   0.000000000000000E+00   0.000000000000000E+00   0.000000000000000E+00
   0.000000000000000E+00   0.000000000000000E+00   0.000000000000000E+00
   0.000000000000000E+00   0.000000000000000E+00   0.000000000000000E+00
   0.000000000000000E+00   0.000000000000000E+00   0.000000000000000E+00
   0.000000000000000E+00   0.000000000000000E+00   0.000000000000000E+00
   0.000000000000000E+00   0.000000000000000E+00   0.000000000000000E+00
   0.000000000000000E+00   0.000000000000000E+00   0.000000000000000E+00
   0.000000000000000E+00   0.000000000000000E+00   0.000000000000000E+00
   0.000000000000000E+00   0.000000000000000E+00   0.000000000000000E+00
   0.000000000000000E+00   0.000000000000000E+00   0.000000000000000E+00
   0.000000000000000E+00   0.000000000000000E+00   0.000000000000000E+00
   0.000000000000000E+00   0.000000000000000E+00   0.000000000000000E+00
   0.000000000000000E+00   0.000000000000000E+00   0.000000000000000E+00
   0.000000000000000E+00   0.000000000000000E+00   0.000000000000000E+00
   0.000000000000000E+00   0.000000000000000E+00   0.000000000000000E+00
   0.000000000000000E+00   0.000000000000000E+00   0.000000000000000E+00
   0.000000000000000E+00   0.000000000000000E+00   0.000000000000000E+00
   0.000000000000000E+00   0.000000000000000E+00   0.000000000000000E+00
   0.000000000000000E+00   0.000000000000000E+00   0.000000000000000E+00
   0.000000000000000E+00   0.000000000000000E+00   0.000000000000000E+00
   0.000000000000000E+00   0.000000000000000E+00   0.000000000000000E+00
   0.000000000000000E+00   0.000000000000000E+00   0.000000000000000E+00
   0.000000000000000E+00   0.000000000000000E+00   0.000000000000000E+00
   0.000000000000000E+00   0.000000000000000E+00   0.000000000000000E+00
   0.000000000000000E+00   0.000000000000000E+00   0.000000000000000E+00
   0.000000000000000E+00   0.000000000000000E+00   0.000000000000000E+00
   0.000000000000000E+00   0.000000000000000E+00   0.000000000000000E+00
   0.000000000000000E+00   0.000000000000000E+00   0.000000000000000E+00
   0.000000000000000E+00   0.000000000000000E+00   0.000000000000000E+00
   0.000000000000000E+00   0.000000000000000E+00   0.000000000000000E+00
   0.000000000000000E+00   0.000000000000000E+00   0.000000000000000E+00
   0.000000000000000E+00   0.000000000000000E+00   0.000000000000000E+00
   0.000000000000000E+00   0.000000000000000E+00   0.000000000000000E+00
   0.000000000000000E+00   0.000000000000000E+00   0.000000000000000E+00
   0.000000000000000E+00   0.000000000000000E+00   0.000000000000000E+00
   0.000000000000000E+00   0.000000000000000E+00   0.000000000000000E+00
   0.000000000000000E+00   0.000000000000000E+00   0.000000000000000E+00
   0.000000000000000E+00   0.000000000000000E+00   0.000000000000000E+00
   0.000000000000000E+00   0.000000000000000E+00   0.000000000000000E+00
   0.000000000000000E+00   0.000000000000000E+00   0.000000000000000E+00
   0.000000000000000E+00   0.000000000000000E+00   0.000000000000000E+00
   0.000000000000000E+00   0.000000000000000E+00   0.000000000000000E+00
   0.000000000000000E+00   0.000000000000000E+00   0.000000000000000E+00
   0.000000000000000E+00   0.000000000000000E+00   0.000000000000000E+00
   0.000000000000000E+00   0.000000000000000E+00   0.000000000000000E+00
   0.000000000000000E+00   0.000000000000000E+00   0.000000000000000E+00
   0.000000000000000E+00   0.000000000000000E+00   0.000000000000000E+00
   0.000000000000000E+00   0.000000000000000E+00   0.000000000000000E+00
   0.000000000000000E+00   0.000000000000000E+00   0.000000000000000E+00
   0.000000000000000E+00   0.000000000000000E+00   0.000000000000000E+00
   0.000000000000000E+00   0.000000000000000E+00   0.000000000000000E+00
   0.000000000000000E+00   0.000000000000000E+00   0.000000000000000E+00
   0.000000000000000E+00   0.000000000000000E+00   0.000000000000000E+00
   0.000000000000000E+00   0.000000000000000E+00   0.000000000000000E+00
   0.000000000000000E+00   0.000000000000000E+00   0.000000000000000E+00
   0.000000000000000E+00   0.000000000000000E+00   0.000000000000000E+00
   0.000000000000000E+00   0.000000000000000E+00   0.000000000000000E+00
   0.000000000000000E+00   0.000000000000000E+00   0.000000000000000E+00
   0.000000000000000E+00   0.000000000000000E+00   0.000000000000000E+00
   0.000000000000000E+00   0.000000000000000E+00   0.000000000000000E+00
   0.000000000000000E+00   0.000000000000000E+00   0.000000000000000E+00
   0.000000000000000E+00   0.000000000000000E+00   0.000000000000000E+00
   0.000000000000000E+00   0.000000000000000E+00   0.000000000000000E+00
   0.000000000000000E+00   0.000000000000000E+00   0.000000000000000E+00
   0.000000000000000E+00   0.000000000000000E+00   0.000000000000000E+00
   0.000000000000000E+00   0.000000000000000E+00   0.000000000000000E+00
   0.000000000000000E+00   0.000000000000000E+00   0.000000000000000E+00
   0.000000000000000E+00   0.000000000000000E+00   0.000000000000000E+00
   0.000000000000000E+00   0.000000000000000E+00   0.000000000000000E+00
   0.000000000000000E+00   0.000000000000000E+00   0.000000000000000E+00
   0.000000000000000E+00   0.000000000000000E+00   0.000000000000000E+00
   0.000000000000000E+00   0.000000000000000E+00   0.000000000000000E+00
   0.000000000000000E+00   0.000000000000000E+00   0.000000000000000E+00
   0.000000000000000E+00   0.000000000000000E+00
    </PP_BETA.3>
    <PP_BETA.4 index="4" label="4P" angular_momentum="1" cutoff_radius_index="905" cutoff_radius="1.5000000000000000" ultrasoft_cutoff_radius="1.8999999999999999">
   1.833268806840368E-07   1.879678227621809E-07   1.927262508482902E-07
   1.976051391148125E-07   2.026075370257287E-07   2.077365712425673E-07
   2.129954475786705E-07   2.183874530029303E-07   2.239159576942526E-07
   2.295844171480296E-07   2.353963743359338E-07   2.413554619203922E-07
   2.474654045251200E-07   2.537300210631289E-07   2.601532271236748E-07
   2.667390374196250E-07   2.734915682967892E-07   2.804150403067651E-07
   2.875137808449215E-07   2.947922268551648E-07   3.022549276031687E-07
   3.099065475198151E-07   3.177518691166156E-07   3.257957959749375E-07
   3.340433558108993E-07   3.424997036178593E-07   3.511701248884530E-07
   3.600600389181979E-07   3.691750021927296E-07   3.785207118607876E-07
   3.881030092951185E-07   3.979278837435184E-07   4.080014760723176E-07
   4.183300826046142E-07   4.289201590556829E-07   4.397783245680090E-07
   4.509113658484655E-07   4.623262414102270E-07   4.740300859220655E-07
   4.860302146677527E-07   4.983341281183501E-07   5.109495166202438E-07
   5.238842652018672E-07   5.371464585020924E-07   5.507443858234046E-07
   5.646865463129710E-07   5.789816542748965E-07   5.936386446169425E-07
   6.086666784351317E-07   6.240751487397382E-07   6.398736863262204E-07
   6.560721657947787E-07   6.726807117223103E-07   6.897097049905889E-07
   7.071697892746633E-07   7.250718776954924E-07   7.434271596410069E-07
   7.622471077598377E-07   7.815434851320890E-07   8.013283526216644E-07
   8.216140764146757E-07   8.424133357487284E-07   8.637391308378487E-07
   8.856047909980448E-07   9.080239829785632E-07   9.310107195040461E-07
   9.545793680329477E-07   9.787446597376538E-07   1.003521698711952E-06
   1.028925971411580E-06   1.054973356333765E-06   1.081680133941788E-06
   1.109062996840823E-06   1.137139060211343E-06   1.165925872506677E-06
   1.195441426421349E-06   1.225704170137106E-06   1.256733018853633E-06
   1.288547366611164E-06   1.321167098412392E-06   1.354612602651235E-06
   1.388904783856250E-06   1.424065075756644E-06   1.460115454679049E-06
   1.497078453283444E-06   1.534977174646794E-06   1.573835306703226E-06
   1.613677137049772E-06   1.654527568126869E-06   1.696412132783254E-06
   1.739357010234758E-06   1.783389042427217E-06   1.828535750813530E-06
   1.874825353555478E-06   1.922286783160992E-06   1.970949704567902E-06
   2.020844533685483E-06   2.072002456405416E-06   2.124455448093936E-06
   2.178236293577524E-06   2.233378607634460E-06   2.289916856005137E-06
   2.347886376934320E-06   2.407323403258643E-06   2.468265085053352E-06
   2.530749512852273E-06   2.594815741455642E-06   2.660503814340658E-06
   2.727854788689889E-06   2.796910761053429E-06   2.867714893660527E-06
   2.940311441397434E-06   3.014745779468124E-06   3.091064431755275E-06
   3.169315099899216E-06   3.249546693112975E-06   3.331809358752133E-06
   3.416154513658584E-06   3.502634876297670E-06   3.591304499708979E-06
   3.682218805291227E-06   3.775434617442455E-06   3.871010199077074E-06
   3.969005288042128E-06   4.069481134455351E-06   4.172500538988502E-06
   4.278127892119802E-06   4.386429214380080E-06   4.497472197617739E-06
   4.611326247308378E-06   4.728062525935431E-06   4.847753997469051E-06
   4.970475472970940E-06   5.096303657353711E-06   5.225317197323913E-06
   5.357596730538805E-06   5.493224936007459E-06   5.632286585767869E-06
   5.774868597872165E-06   5.921060090713302E-06   6.070952438726826E-06
   6.224639329502913E-06   6.382216822344185E-06   6.543783408305812E-06
   6.709440071755634E-06   6.879290353492714E-06   7.053440415463547E-06
   7.231999107116889E-06   7.415078033438038E-06   7.602791624705640E-06
   7.795257208014289E-06   7.992595080607777E-06   8.194928585068657E-06
   8.402384186411510E-06   8.615091551127558E-06   8.833183628230400E-06
   9.056796732353502E-06   9.286070628951186E-06   9.521148621656566E-06
   9.762177641851017E-06   1.000930834050092E-05   1.026269518231946E-05
   1.052249654231195E-05   1.078887480476546E-05   1.106199646474415E-05
   1.134203223215401E-05   1.162915713844216E-05   1.192355064599703E-05
   1.222539676031828E-05   1.253488414502599E-05   1.285220623978154E-05
   1.317756138119382E-05   1.351115292678567E-05   1.385318938209909E-05
   1.420388453101798E-05   1.456345756938954E-05   1.493213324202927E-05
   1.531014198319324E-05   1.569772006060711E-05   1.609510972314115E-05
   1.650255935222315E-05   1.692032361708535E-05   1.734866363394033E-05
   1.778784712918739E-05   1.823814860675004E-05   1.869984951964944E-05
   1.917323844592216E-05   1.965861126899010E-05   2.015627136259728E-05
   2.066652978042848E-05   2.118970545052714E-05   2.172612537463593E-05
   2.227612483258329E-05   2.284004759184381E-05   2.341824612240423E-05
   2.401108181706788E-05   2.461892521733730E-05   2.524215624501400E-05
   2.588116443966184E-05   2.653634920208190E-05   2.720812004395004E-05
   2.789689684377561E-05   2.860311010933789E-05   2.932720124676781E-05
   3.006962283644065E-05   3.083083891585259E-05   3.161132526965972E-05
   3.241156972705770E-05   3.323207246669086E-05   3.407334632927987E-05
   3.493591713816239E-05   3.582032402795062E-05   3.672711978150640E-05
   3.765687117544814E-05   3.861015933440451E-05   3.958758009423469E-05
   4.058974437444571E-05   4.161727856003510E-05   4.292441715042532E-05
   4.401607848659691E-05   4.479959956512508E-05   4.592918587336927E-05
   4.709478466371098E-05   4.829127700238690E-05   4.951288985110603E-05
   5.076932796055508E-05   5.205608624294430E-05   5.337340551296056E-05
   5.472930501095182E-05   5.611698579695604E-05   5.753608298171938E-05
   5.899957402468234E-05   6.049155542888596E-05   6.202544565807273E-05
   6.359269286436068E-05   6.520781025725215E-05   6.685868976837619E-05
   6.855442902796232E-05   7.029018941691404E-05   7.206616675384248E-05
   7.389727008482138E-05   7.576867749386552E-05   7.769008262223533E-05
   7.965700782904569E-05   8.167494796706260E-05   8.374883223197813E-05
   8.586437048368339E-05   8.804537356658915E-05   9.026903829564294E-05
   9.255718778540187E-05   9.490277583248268E-05   9.730898608406916E-05
   9.977220397641218E-05   1.022990601300908E-04   1.048912214971940E-04
   1.075462308740444E-04   1.102725546156221E-04   1.130658331982707E-04
   1.159308652629494E-04   1.188630880276088E-04   1.218769321351667E-04
   1.249622930882039E-04   1.281286204612365E-04   1.313708180046409E-04
   1.347021237268942E-04   1.381110019279930E-04   1.416114877916008E-04
   1.451950606404579E-04   1.488703506080499E-04   1.526426407003509E-04
   1.565116023322425E-04   1.604738677092551E-04   1.645375548909791E-04
   1.687038818871556E-04   1.729736925940575E-04   1.773545579628157E-04
   1.818476907985611E-04   1.864515387947246E-04   1.911784690159628E-04
   1.960132582791039E-04   2.009782737301751E-04   2.060681642484876E-04
   2.112872994202010E-04   2.166380472131816E-04   2.221243627772383E-04
   2.277476022859014E-04   2.335155585505111E-04   2.394247467389120E-04
   2.454931591522561E-04   2.517074270640687E-04   2.580777659931719E-04
   2.646171219681736E-04   2.713178670302430E-04   2.781852411856711E-04
   2.852310864151861E-04   2.924507200171191E-04   2.998576035159268E-04
   3.074503367808063E-04   3.152345546835983E-04   3.232188529854988E-04
   3.313989920090223E-04   3.397919109007349E-04   3.483919407668810E-04
   3.572172870693903E-04   3.662589210157090E-04   3.755340278478983E-04
   3.850405583120118E-04   3.947899774174551E-04   4.047909864991618E-04
   4.150338440608078E-04   4.255474652845878E-04   4.363170922969078E-04
   4.473689212435394E-04   4.586903762787541E-04   4.703053543555291E-04
   4.822140135824307E-04   4.944247754443327E-04   5.069386121991960E-04
   5.197772347107798E-04   5.329329242974392E-04   5.464328858566657E-04
   5.602595445958632E-04   5.744458288328732E-04   5.889874624299012E-04
   6.039051780264283E-04   6.191912212559166E-04   6.348681986108398E-04
   6.509412373996090E-04   6.674202733907312E-04   6.843177009692881E-04
   7.016420844776182E-04   7.194058623233293E-04   7.376232560834060E-04
   7.562937405288170E-04   7.754453257211328E-04   7.950729653629206E-04
   8.152053467061736E-04   8.358379432883544E-04   8.570059034067358E-04
   8.787009942209508E-04   9.009497071106589E-04   9.237583277060474E-04
   9.471438149235151E-04   9.711231639403170E-04   9.957083472776178E-04
   1.020918324074940E-03   1.046761203945797E-03   1.073260490341387E-03
   1.100434225310270E-03   1.128289366942743E-03   1.156857949126029E-03
   1.186142746513789E-03   1.216173557868243E-03   1.246958970968022E-03
   1.278532825690754E-03   1.310896931305773E-03   1.344088043418701E-03
   1.378112763951340E-03   1.412998699466501E-03   1.448777587995654E-03
   1.485449759778538E-03   1.523057528763461E-03   1.561616831680787E-03
   1.601147103511384E-03   1.641687340474911E-03   1.683244210901064E-03
   1.725857937930037E-03   1.769554940956417E-03   1.814347457992660E-03
   1.860280088308505E-03   1.907374045196579E-03   1.955662303519406E-03
   2.005172470247932E-03   2.055933914361268E-03   2.107986958800620E-03
   2.161345746863825E-03   2.216065857132172E-03   2.272166741160361E-03
   2.329688540069107E-03   2.388670731588339E-03   2.449139824445870E-03
   2.511142107890250E-03   2.574713926544705E-03   2.639891763623923E-03
   2.706723951273769E-03   2.775245062241926E-03   2.845503327224656E-03
   2.917539114760784E-03   2.991399564946970E-03   3.067126983254939E-03
   3.144772148412876E-03   3.224387473601872E-03   3.306019485992653E-03
   3.389706275778913E-03   3.475523086784331E-03   3.563506573099871E-03
   3.653721578161979E-03   3.746213612813677E-03   3.841052107053995E-03
   3.938296774138848E-03   4.037988633786207E-03   4.140219553197867E-03
   4.245026926614610E-03   4.352494811154801E-03   4.462677065726880E-03
   4.575652973571917E-03   4.691491747151118E-03   4.810254591704619E-03
   4.932033886290845E-03   5.056888944602191E-03   5.184908575679888E-03
   5.316165543495684E-03   5.450748281256822E-03   5.588735714882533E-03
   5.730211749181140E-03   5.875279921161866E-03   6.024014539950405E-03
   6.176516684396394E-03   6.332875998982058E-03   6.493200572432044E-03
   6.657575881462582E-03   6.826115672422868E-03   6.998924831578712E-03
   7.176102648182643E-03   7.357770055948974E-03   7.544034931944256E-03
   7.735019737361092E-03   7.930832176076888E-03   8.131603789433457E-03
   8.337459029783445E-03   8.548527272574068E-03   8.764934636263058E-03
   8.986826976006362E-03   9.214329807463693E-03   9.447593579430209E-03
   9.686765753749799E-03   9.931990029902145E-03   1.018342315609759E-02
   1.044122353339662E-02   1.070554334454987E-02   1.097656049078166E-02
   1.125443935652796E-02   1.153934985365795E-02   1.183147262977836E-02
   1.213099174644285E-02   1.243809587284245E-02   1.275296992935124E-02
   1.307581769293534E-02   1.340683811146644E-02   1.374623952975788E-02
   1.409423144850309E-02   1.445103333335920E-02   1.481686827508902E-02
   1.519196402903679E-02   1.557656110877220E-02   1.597088609627448E-02
   1.637519862469487E-02   1.678974321123664E-02   1.721478449718730E-02
   1.765058455011483E-02   1.809742140880696E-02   1.855556694453819E-02
   1.902531328160646E-02   1.950694750122785E-02   2.000077244736323E-02
   2.050711144289064E-02   2.102625557855067E-02   2.155854528242160E-02
   2.210431816945224E-02   2.266389888163223E-02   2.323764917811133E-02
   2.382592517790094E-02   2.442909210759026E-02   2.504753112329505E-02
   2.568162299643870E-02   2.633176964479808E-02   2.699837991651899E-02
   2.768185658945338E-02   2.838264300500312E-02   2.910117016116284E-02
   2.983788499661219E-02   3.059325595063600E-02   3.136774440713533E-02
   3.216184430958985E-02   3.297604332007398E-02   3.381085360045663E-02
   3.466680990449614E-02   3.554442383358883E-02   3.644425801406259E-02
   3.736687507407724E-02   3.831284918120503E-02   3.928276904870767E-02
   4.027725081116540E-02   4.129689995304564E-02   4.234237459486817E-02
   4.341430849083316E-02   4.451338102274260E-02   4.564027953283767E-02
   4.679571086314460E-02   4.798038714926550E-02   4.919506189379025E-02
   5.044048649088761E-02   5.171744275031864E-02   5.302672182684587E-02
   5.436915373833506E-02   5.574557144743869E-02   5.715681285082164E-02
   5.860385004153523E-02   6.008744488032658E-02   6.160861629369541E-02
   6.316842775022236E-02   6.476736583207077E-02   6.640733302295904E-02
   6.808833369777056E-02   6.981217373698539E-02   7.157955752804224E-02
   7.339144717012103E-02   7.525003269440378E-02   7.715449095126276E-02
   7.910805547934374E-02   8.111088102075537E-02   8.316414856702137E-02
   8.526971608756784E-02   8.742842616561231E-02   8.964176778973154E-02
   9.191123542058854E-02   9.423808282724755E-02   9.662406909752275E-02
   9.907005116984879E-02   1.015785120999141E-01   1.041497775469505E-01
   1.067868251756781E-01   1.094902389708377E-01   1.122622575502210E-01
   1.151043524104777E-01   1.180184847653798E-01   1.210065444512998E-01
   1.240698506423398E-01   1.272111779461391E-01   1.304317131949673E-01
   1.337339069487983E-01   1.371198219758303E-01   1.405912859441619E-01
   1.441506582766000E-01   1.478003381983991E-01   1.515423675796199E-01
   1.553788808398062E-01   1.593128637441764E-01   1.633463315181838E-01
   1.674819154039329E-01   1.717223040747968E-01   1.760699252512197E-01
   1.805277640166749E-01   1.850983073935921E-01   1.897849092008876E-01
   1.945897495315285E-01   1.995166254550933E-01   2.045680291729692E-01
   2.097475064316614E-01   2.150580289110036E-01   2.205030236493049E-01
   2.260860757727414E-01   2.318101075814509E-01   2.376795733416615E-01
   2.436974704093113E-01   2.498675371019463E-01   2.561943641650808E-01
   2.626807745607087E-01   2.693318530203588E-01   2.761513412676391E-01
   2.831437823265535E-01   2.903123482019747E-01   2.976636658198875E-01
   3.052001625998866E-01   3.129284510425820E-01   3.208513186487532E-01
   3.289760649810574E-01   3.373056419142531E-01   3.458468476091490E-01
   3.546038828785862E-01   3.635829313120671E-01   3.727892015167105E-01
   3.822287598900980E-01   3.919078651690926E-01   4.018313436420287E-01
   4.120060902408142E-01   4.224399406870503E-01   4.331360863084117E-01
   4.441051307089849E-01   4.553502365293012E-01   4.668810603539693E-01
   4.787046434486584E-01   4.908259924673142E-01   5.032561353059686E-01
   5.159996923775014E-01   5.290674847481442E-01   5.424648323221941E-01
   5.562027520269894E-01   5.702882390729469E-01   5.847301370712894E-01
   5.995386229269211E-01   6.147221577337283E-01   6.302895468592582E-01
   6.462525901021348E-01   6.626188527228569E-01   6.794003478779871E-01
   6.966073661950887E-01   7.142496311868634E-01   7.323392525004593E-01
   7.508869609189190E-01   7.699052934502930E-01   7.894045298009784E-01
   8.093986037536460E-01   8.298989818838516E-01   8.509190931599919E-01
   8.724713268427537E-01   8.945702575040579E-01   9.172288808346911E-01
   9.404618259825028E-01   9.642834295531522E-01   9.887087802575580E-01
   1.013753143307628E+00   1.039432298720526E+00   1.065761944118010E+00
   1.092759363409569E+00   1.120440600829763E+00   1.148823670509456E+00
   1.177926017513705E+00   1.207766113427701E+00   1.238362330639233E+00
   1.269734401253928E+00   1.301901310987255E+00   1.334884002113943E+00
   1.368702362325138E+00   1.403378281341947E+00   1.438933058292875E+00
   1.475389240678048E+00   1.512769573752722E+00   1.551097440597628E+00
   1.590397290245008E+00   1.630692991553575E+00   1.672010719758921E+00
   1.714375740242643E+00   1.757814866458091E+00   1.802355314346340E+00
   1.848025192997961E+00   1.894852648111936E+00   1.942867833003520E+00
   1.992099998996114E+00   2.042580817461040E+00   2.094341284045635E+00
   2.147414363874006E+00   2.201832906178009E+00   2.257631615535816E+00
   2.314844785536163E+00   2.373508729985035E+00   2.433660236001913E+00
   2.495336869843362E+00   2.558577236322236E+00   2.623421154760241E+00
   2.689909156727225E+00   2.758082945233078E+00   2.827985133090312E+00
   2.899659671379244E+00   2.973151296698052E+00   3.048506116476165E+00
   3.125771304336883E+00   3.204995140786124E+00   3.286227294770548E+00
   3.369518475247794E+00   3.454920949625677E+00   3.542487838293020E+00
   3.632274176058633E+00   3.724335772728761E+00   3.818730313765062E+00
   3.915516593471711E+00   4.014755151530018E+00   4.116507704286839E+00
   4.220837705689341E+00   4.327810302598742E+00   4.437491936745730E+00
   4.549950851711539E+00   4.665257043554252E+00   4.783482114828530E+00
   4.904699477445984E+00   5.028984300835173E+00   5.156413567513980E+00
   5.287066327783229E+00   5.421023233655887E+00   5.558367141037941E+00
   5.699182839458729E+00   5.843557076934502E+00   5.991578791009033E+00
   6.143339004886428E+00   6.298930853602165E+00   6.458449766792782E+00
   6.621993410348786E+00   6.789661606347423E+00   6.961556795649408E+00
   7.137783514225887E+00   7.318448862610410E+00   7.503662348044607E+00
   7.693536137070545E+00   7.888184633061293E+00   8.087725113195425E+00
   8.292277392095684E+00   8.501963848779830E+00   8.716909731603018E+00
   8.937242802661686E+00   9.163093877771402E+00   9.394596234931548E+00
   9.631886306701439E+00   9.875103166695176E+00   1.012438877834671E+01
   1.037988820638377E+01   1.064174910715082E+01   1.091012238733865E+01
   1.118516170876873E+01   1.146702369903004E+01   1.175586804523191E+01
   1.205185721532405E+01   1.235515676795326E+01   1.266593502546033E+01
   1.298436339218792E+01   1.331061588891015E+01   1.364486959056330E+01
   1.398730417019220E+01   1.433810209913976E+01   1.469744845369897E+01
   1.506553086019210E+01   1.544253942717134E+01   1.582866656291878E+01
   1.622410699755935E+01   1.662905742098944E+01   1.704371656977104E+01
   1.746828484145986E+01   1.790296428820761E+01   1.834795820899355E+01
   1.880347109961453E+01   1.926970822168649E+01   1.974687544975710E+01
   2.023517885745660E+01   2.073482444453691E+01   2.124601767047308E+01
   2.176896317591897E+01   2.230386416341554E+01   2.285092206617611E+01
   2.341033592825778E+01   2.398230187396470E+01   2.456701246180413E+01
   2.516465604482286E+01   2.577541605132794E+01   2.639947015856086E+01
   2.703698958140194E+01   2.768813803464661E+01   2.835307088143733E+01
   2.903193405417187E+01   2.972486303389744E+01   3.043198151819408E+01
   3.115340037611830E+01   3.188921614874434E+01   3.263950971445334E+01
   3.340434475187521E+01   3.418376611712844E+01   3.497779817645215E+01
   3.578644295558379E+01   3.660967826178771E+01   3.744745562844179E+01
   3.829969815887929E+01   3.916629834051750E+01   4.004711558182549E+01
   4.094197371914279E+01   4.185065846021871E+01   4.277291447822412E+01
   4.370844267390993E+01   4.465689699831188E+01   4.561788138599292E+01
   4.659094639489473E+01   4.757558577969797E+01   4.857123293313367E+01
   4.957725711498688E+01   5.059295970923438E+01   5.161757013974733E+01
   5.265024189490543E+01   5.369004822594428E+01   5.473597790818360E+01
   5.578693079919969E+01   5.684171337272358E+01   5.789903412906381E+01
   5.895749904010057E+01   6.001560686206295E+01   6.107174448827078E+01
   6.212418234282848E+01   6.317106972582741E+01   6.421043036371782E+01
   6.524015790493706E+01   6.625801170168143E+01   6.726161272221640E+01
   6.824843965106470E+01   6.921582539610944E+01   7.016095378612306E+01
   7.108085678369542E+01   7.197241213709191E+01   7.283234149917541E+01
   7.365720924023907E+01   7.444342192091102E+01   7.518722850487342E+01
   7.588472149760747E+01   7.653183894232677E+01   7.712436760474060E+01
   7.765794718182588E+01   7.812807583396255E+01   7.853011713930516E+01
   7.885930841650350E+01   7.911077076845959E+01   7.927952074551951E+01
   7.936048393275303E+01   7.934851041251920E+01   7.923839234517271E+01
   7.902488373443924E+01   7.870272242509196E+01   7.826665456103467E+01
   7.771146151814787E+01   7.703198937859150E+01   7.622318110979955E+01
   7.528011144285324E+01   7.419802452100180E+01   7.297237439436572E+01
   7.159886826332939E+01   7.007351266658600E+01   6.839266237548554E+01
   6.655307206425772E+01   6.455195074124595E+01   6.238701868664032E+01
   6.005656690852578E+01   5.755951890443777E+01   5.489549456502607E+01
   5.206487600303433E+01   4.906887505726831E+01   4.590960220309961E+01
   4.259013655957096E+01   3.911459662249968E+01   3.548821140086528E+01
   3.171739141823940E+01   2.780979924837558E+01   2.377441891910544E+01
   1.962162371256034E+01   1.536324160916550E+01   1.101261769850106E+01
   6.584672653855932E+00   2.095956306501364E+00  -2.435304885235979E+00
  -6.989167715467062E+00  -1.154394125454371E+01  -1.607616672358346E+01
  -2.056061068310465E+01  -2.497027414850908E+01  -2.927642095154009E+01
  -3.344862918274710E+01  -3.745487035512931E+01  -4.126162161963719E+01
  -4.483401744615102E+01  -4.813604799345889E+01  -5.113081261212435E+01
  -5.378083796184158E+01  -5.604847131156819E+01  -5.789636066308650E+01
  -5.928803408877310E+01  -6.018859137600819E+01  -6.056552093582602E+01
  -6.038965461566431E+01  -5.963627133054311E+01  -5.828635786340811E+01
  -5.632803081318549E+01  -5.375811732898794E+01  -5.058388340890241E+01
  -4.682488663460174E+01  -4.251491442814664E+01  -3.770394908436269E+01
  -3.246007547541146E+01  -2.687121652477021E+01  -2.104654389481616E+01
  -1.511736648397520E+01  -9.237246210898805E+00  -3.581028564745087E+00
   1.657596632925923E+00   6.270472089247958E+00   1.004185146867037E+01
   1.275845664944947E+01   1.422350735560240E+01   1.427581860828355E+01
   1.281382988366255E+01   9.838450728053969E+00   5.394895585617705E+00
   5.957552271810429E-01  -5.772770640207854E-02   6.990534249985473E-03
   5.006538394303455E-04   1.068370626039028E-03   9.345691618975679E-04
   8.689566152115093E-04   7.956214584602565E-04   7.224657893644851E-04
   6.490506012764399E-04   5.757363555018119E-04   5.027786456169812E-04
   4.304172460459192E-04   3.588694967117537E-04   2.883309415681013E-04
   2.189787702355484E-04   1.509704240225222E-04   8.444723641321005E-05
   1.952967471138540E-05  -4.367227049950390E-05  -1.050685510453498E-04
  -1.645777593733740E-04  -2.221338424179926E-04  -2.776824179251138E-04
  -3.311787808317115E-04  -3.825902751417973E-04  -4.318904409121021E-04
  -4.790674137199300E-04  -5.240603153402047E-04  -5.673863453023651E-04
   0.000000000000000E+00   0.000000000000000E+00   0.000000000000000E+00
   0.000000000000000E+00   0.000000000000000E+00   0.000000000000000E+00
   0.000000000000000E+00   0.000000000000000E+00   0.000000000000000E+00
   0.000000000000000E+00   0.000000000000000E+00   0.000000000000000E+00
   0.000000000000000E+00   0.000000000000000E+00   0.000000000000000E+00
   0.000000000000000E+00   0.000000000000000E+00   0.000000000000000E+00
   0.000000000000000E+00   0.000000000000000E+00   0.000000000000000E+00
   0.000000000000000E+00   0.000000000000000E+00   0.000000000000000E+00
   0.000000000000000E+00   0.000000000000000E+00   0.000000000000000E+00
   0.000000000000000E+00   0.000000000000000E+00   0.000000000000000E+00
   0.000000000000000E+00   0.000000000000000E+00   0.000000000000000E+00
   0.000000000000000E+00   0.000000000000000E+00   0.000000000000000E+00
   0.000000000000000E+00   0.000000000000000E+00   0.000000000000000E+00
   0.000000000000000E+00   0.000000000000000E+00   0.000000000000000E+00
   0.000000000000000E+00   0.000000000000000E+00   0.000000000000000E+00
   0.000000000000000E+00   0.000000000000000E+00   0.000000000000000E+00
   0.000000000000000E+00   0.000000000000000E+00   0.000000000000000E+00
   0.000000000000000E+00   0.000000000000000E+00   0.000000000000000E+00
   0.000000000000000E+00   0.000000000000000E+00   0.000000000000000E+00
   0.000000000000000E+00   0.000000000000000E+00   0.000000000000000E+00
   0.000000000000000E+00   0.000000000000000E+00   0.000000000000000E+00
   0.000000000000000E+00   0.000000000000000E+00   0.000000000000000E+00
   0.000000000000000E+00   0.000000000000000E+00   0.000000000000000E+00
   0.000000000000000E+00   0.000000000000000E+00   0.000000000000000E+00
   0.000000000000000E+00   0.000000000000000E+00   0.000000000000000E+00
   0.000000000000000E+00   0.000000000000000E+00   0.000000000000000E+00
   0.000000000000000E+00   0.000000000000000E+00   0.000000000000000E+00
   0.000000000000000E+00   0.000000000000000E+00   0.000000000000000E+00
   0.000000000000000E+00   0.000000000000000E+00   0.000000000000000E+00
   0.000000000000000E+00   0.000000000000000E+00   0.000000000000000E+00
   0.000000000000000E+00   0.000000000000000E+00   0.000000000000000E+00
   0.000000000000000E+00   0.000000000000000E+00   0.000000000000000E+00
   0.000000000000000E+00   0.000000000000000E+00   0.000000000000000E+00
   0.000000000000000E+00   0.000000000000000E+00   0.000000000000000E+00
   0.000000000000000E+00   0.000000000000000E+00   0.000000000000000E+00
   0.000000000000000E+00   0.000000000000000E+00   0.000000000000000E+00
   0.000000000000000E+00   0.000000000000000E+00   0.000000000000000E+00
   0.000000000000000E+00   0.000000000000000E+00   0.000000000000000E+00
   0.000000000000000E+00   0.000000000000000E+00   0.000000000000000E+00
   0.000000000000000E+00   0.000000000000000E+00   0.000000000000000E+00
   0.000000000000000E+00   0.000000000000000E+00   0.000000000000000E+00
   0.000000000000000E+00   0.000000000000000E+00   0.000000000000000E+00
   0.000000000000000E+00   0.000000000000000E+00   0.000000000000000E+00
   0.000000000000000E+00   0.000000000000000E+00   0.000000000000000E+00
   0.000000000000000E+00   0.000000000000000E+00   0.000000000000000E+00
   0.000000000000000E+00   0.000000000000000E+00   0.000000000000000E+00
   0.000000000000000E+00   0.000000000000000E+00   0.000000000000000E+00
   0.000000000000000E+00   0.000000000000000E+00   0.000000000000000E+00
   0.000000000000000E+00   0.000000000000000E+00   0.000000000000000E+00
   0.000000000000000E+00   0.000000000000000E+00   0.000000000000000E+00
   0.000000000000000E+00   0.000000000000000E+00   0.000000000000000E+00
   0.000000000000000E+00   0.000000000000000E+00   0.000000000000000E+00
   0.000000000000000E+00   0.000000000000000E+00   0.000000000000000E+00
   0.000000000000000E+00   0.000000000000000E+00   0.000000000000000E+00
   0.000000000000000E+00   0.000000000000000E+00   0.000000000000000E+00
   0.000000000000000E+00   0.000000000000000E+00   0.000000000000000E+00
   0.000000000000000E+00   0.000000000000000E+00   0.000000000000000E+00
   0.000000000000000E+00   0.000000000000000E+00   0.000000000000000E+00
   0.000000000000000E+00   0.000000000000000E+00   0.000000000000000E+00
   0.000000000000000E+00   0.000000000000000E+00   0.000000000000000E+00
   0.000000000000000E+00   0.000000000000000E+00   0.000000000000000E+00
   0.000000000000000E+00   0.000000000000000E+00   0.000000000000000E+00
   0.000000000000000E+00   0.000000000000000E+00   0.000000000000000E+00
   0.000000000000000E+00   0.000000000000000E+00   0.000000000000000E+00
   0.000000000000000E+00   0.000000000000000E+00   0.000000000000000E+00
   0.000000000000000E+00   0.000000000000000E+00   0.000000000000000E+00
   0.000000000000000E+00   0.000000000000000E+00   0.000000000000000E+00
   0.000000000000000E+00   0.000000000000000E+00   0.000000000000000E+00
   0.000000000000000E+00   0.000000000000000E+00   0.000000000000000E+00
   0.000000000000000E+00   0.000000000000000E+00   0.000000000000000E+00
   0.000000000000000E+00   0.000000000000000E+00   0.000000000000000E+00
   0.000000000000000E+00   0.000000000000000E+00   0.000000000000000E+00
   0.000000000000000E+00   0.000000000000000E+00   0.000000000000000E+00
   0.000000000000000E+00   0.000000000000000E+00   0.000000000000000E+00
   0.000000000000000E+00   0.000000000000000E+00   0.000000000000000E+00
   0.000000000000000E+00   0.000000000000000E+00   0.000000000000000E+00
   0.000000000000000E+00   0.000000000000000E+00   0.000000000000000E+00
   0.000000000000000E+00   0.000000000000000E+00   0.000000000000000E+00
   0.000000000000000E+00   0.000000000000000E+00   0.000000000000000E+00
   0.000000000000000E+00   0.000000000000000E+00   0.000000000000000E+00
   0.000000000000000E+00   0.000000000000000E+00   0.000000000000000E+00
   0.000000000000000E+00   0.000000000000000E+00   0.000000000000000E+00
   0.000000000000000E+00   0.000000000000000E+00   0.000000000000000E+00
   0.000000000000000E+00   0.000000000000000E+00   0.000000000000000E+00
   0.000000000000000E+00   0.000000000000000E+00   0.000000000000000E+00
   0.000000000000000E+00   0.000000000000000E+00   0.000000000000000E+00
   0.000000000000000E+00   0.000000000000000E+00   0.000000000000000E+00
   0.000000000000000E+00   0.000000000000000E+00   0.000000000000000E+00
   0.000000000000000E+00   0.000000000000000E+00   0.000000000000000E+00
   0.000000000000000E+00   0.000000000000000E+00   0.000000000000000E+00
   0.000000000000000E+00   0.000000000000000E+00   0.000000000000000E+00
   0.000000000000000E+00   0.000000000000000E+00   0.000000000000000E+00
   0.000000000000000E+00   0.000000000000000E+00   0.000000000000000E+00
   0.000000000000000E+00   0.000000000000000E+00   0.000000000000000E+00
   0.000000000000000E+00   0.000000000000000E+00   0.000000000000000E+00
   0.000000000000000E+00   0.000000000000000E+00
    </PP_BETA.4>
    <PP_DIJ columns="4" rows="4">
   5.0201866814512552E-002   2.1546001675736282E-002   0.0000000000000000        0.0000000000000000     
   2.1546001675736282E-002  -5.7399927171597476E-004   0.0000000000000000        0.0000000000000000     
   0.0000000000000000        0.0000000000000000       -8.6511784969624528E-002  -7.8709514435243211E-002
   0.0000000000000000        0.0000000000000000       -7.8709514435243211E-002  -7.1690200600287746E-002
    </PP_DIJ>
    <PP_AUGMENTATION q_with_l="true" nqf="0" nqlc="5">
      <PP_Q size="16">
 -0.32974034239872979      -0.25753323994397498        0.0000000000000000        0.0000000000000000     
 -0.25753323994397498      -0.20221583058906706        0.0000000000000000        0.0000000000000000     
   0.0000000000000000        0.0000000000000000       -6.6727769179052057E-002  -5.8361132603644859E-002
   0.0000000000000000        0.0000000000000000       -5.8361132603644859E-002  -5.1104141455143248E-002
      </PP_Q>
      <PP_QIJL.1.1.0 first_index="1" second_index="1" composite_index="1" angular_momentum="0" size="1211">
  -8.612684501065904E-10  -8.830715647185876E-10  -9.054266278044707E-10
  -9.283476120063608E-10  -9.518488436855026E-10  -9.759450118766966E-10
  -1.000651177469431E-09  -1.025982782621425E-09  -1.051955660410477E-09
  -1.078586044730667E-09  -1.105890580439049E-09  -1.133886333759244E-09
  -1.162590802948374E-09  -1.192021929234052E-09  -1.222198108028231E-09
  -1.253138200424930E-09  -1.284861544989033E-09  -1.317387969843527E-09
  -1.350737805062715E-09  -1.384931895379188E-09  -1.419991613212447E-09
  -1.455938872027366E-09  -1.492796140030825E-09  -1.530586454215061E-09
  -1.569333434756554E-09  -1.609061299779384E-09  -1.649794880492368E-09
  -1.691559636709358E-09  -1.734381672762460E-09  -1.778287753818095E-09
  -1.823305322606092E-09  -1.869462516572288E-09  -1.916788185465350E-09
  -1.965311909368806E-09  -2.015064017189564E-09  -2.066075605614458E-09
  -2.118378558546690E-09  -2.172005567034316E-09  -2.226990149703201E-09
  -2.283366673707270E-09  -2.341170376209077E-09  -2.400437386404193E-09
  -2.461204748103118E-09  -2.523510442884872E-09  -2.587393413836738E-09
  -2.652893589894917E-09  -2.720051910801447E-09  -2.788910352692861E-09
  -2.859511954336633E-09  -2.931900844031832E-09  -3.006122267190711E-09
  -3.082222614618587E-09  -3.160249451509591E-09  -3.240251547176460E-09
  -3.322278905532973E-09  -3.406382796347983E-09  -3.492615787290712E-09
  -3.581031776787253E-09  -3.671686027708834E-09  -3.764635201912936E-09
  -3.859937395658752E-09  -3.957652175919277E-09  -4.057840617612588E-09
  -4.160565341775649E-09  -4.265890554704528E-09  -4.373882088085379E-09
  -4.484607440141408E-09  -4.598135817821468E-09  -4.714538180056618E-09
  -4.833887282111823E-09  -4.956257721060299E-09  -5.081725982409146E-09
  -5.210370487905265E-09  -5.342271644551498E-09  -5.477511894863659E-09
  -5.616175768399723E-09  -5.758349934593586E-09  -5.904123256926289E-09
  -6.053586848468550E-09  -6.206834128829457E-09  -6.363960882546680E-09
  -6.525065318954989E-09  -6.690248133570250E-09  -6.859612571027393E-09
  -7.033264489611716E-09  -7.211312427423682E-09  -7.393867670218809E-09
  -7.581044320964876E-09  -7.772959371159969E-09  -7.969732773956034E-09
  -8.171487519133411E-09  -8.378349709973500E-09  -8.590448642077396E-09
  -8.807916884179827E-09  -9.030890361009002E-09  -9.259508438243865E-09
  -9.493914009622256E-09  -9.734253586254124E-09  -9.980677388195702E-09
  -1.023333943834202E-08  -1.049239765869610E-08  -1.075801396907540E-08
  -1.103035438831697E-08  -1.130958913804457E-08  -1.159589274906286E-08
  -1.188944417044460E-08  -1.219042688137983E-08  -1.249902900585621E-08
  -1.281544343024266E-08  -1.313986792384970E-08  -1.347250526254152E-08
  -1.381356335547760E-08  -1.416325537506265E-08  -1.452179989018630E-08
  -1.488942100283581E-08  -1.526634848816696E-08  -1.565281793812110E-08
  -1.604907090867772E-08  -1.645535507083477E-08  -1.687192436541115E-08
  -1.729903916176787E-08  -1.773696642054740E-08  -1.818597986053273E-08
  -1.864636012973051E-08  -1.911839498078523E-08  -1.960237945083377E-08
  -2.009861604591340E-08  -2.060741493003773E-08  -2.112909411905933E-08
  -2.166397967944006E-08  -2.221240593205299E-08  -2.277471566114394E-08
  -2.335126032858271E-08  -2.394240029353809E-08  -2.454850503771423E-08
  -2.516995339628846E-08  -2.580713379469564E-08  -2.646044449140674E-08
  -2.713029382685309E-08  -2.781710047865276E-08  -2.852129372329719E-08
  -2.924331370446324E-08  -2.998361170811711E-08  -3.074265044458275E-08
  -3.152090433775084E-08  -3.231885982160899E-08  -3.313701564427878E-08
  -3.397588317974955E-08  -3.483598674750363E-08  -3.571786394023313E-08
  -3.662206595985261E-08  -3.754915796201819E-08  -3.849971940936817E-08
  -3.947434443370583E-08  -4.047364220735137E-08  -4.149823732389374E-08
  -4.254877018858238E-08  -4.362589741860092E-08  -4.473029225347421E-08
  -4.586264497586503E-08  -4.702366334302266E-08  -4.821407302915434E-08
  -4.943461807899502E-08  -5.068606137285925E-08  -5.196918510346656E-08
  -5.328479126483609E-08  -5.463370215356008E-08  -5.601676088276477E-08
  -5.743483190908370E-08  -5.888880157297138E-08  -6.037957865269365E-08
  -6.190809493234474E-08  -6.347530578424136E-08  -6.508219076606150E-08
  -6.672975423310014E-08  -6.841902596602236E-08  -7.015106181451105E-08
  -7.192694435720575E-08  -7.374778357834962E-08  -7.561471756156574E-08
  -7.752891320119483E-08  -7.949156693164338E-08  -8.150390547519221E-08
  -8.356718660873816E-08  -8.568269994994521E-08  -8.785176776329573E-08
  -9.007574578655024E-08  -9.235602407812547E-08  -9.469402788592586E-08
  -9.709121853817027E-08  -9.954909435676693E-08  -1.020691915938152E-07
  -1.046530853918104E-07  -1.073023907681593E-07  -1.100187636246178E-07
  -1.128039017822815E-07  -1.156595460427804E-07  -1.185874812763332E-07
  -1.215895375373495E-07  -1.246675912082731E-07  -1.278235661723785E-07
  -1.310594350162627E-07  -1.343772202627719E-07  -1.377789956351443E-07
  -1.412668873531538E-07  -1.448430754620628E-07  -1.485097951952228E-07
  -1.522693383711648E-07  -1.561240548260584E-07  -1.600763538824364E-07
  -1.641287058550947E-07  -1.682836435951207E-07  -1.725437640730037E-07
  -1.769117300018241E-07  -1.813902715015351E-07  -1.859821878053707E-07
  -1.906903490094597E-07  -1.955176978667229E-07  -2.004672516261880E-07
  -2.055421039188670E-07  -2.107454266913696E-07  -2.160804721884747E-07
  -2.215505749858820E-07  -2.271591540744279E-07  -2.329097149970649E-07
  -2.388058520399309E-07  -2.448512504788970E-07  -2.510496888829762E-07
  -2.574050414760485E-07  -2.639212805583749E-07  -2.706024789894038E-07
  -2.774528127334424E-07  -2.844765634697591E-07  -2.916781212687686E-07
  -2.990619873359658E-07  -3.066327768253120E-07  -3.143952217238578E-07
  -3.223541738093770E-07  -3.305146076828785E-07  -3.388816238778900E-07
  -3.474604520484420E-07  -3.562564542377715E-07  -3.652751282297581E-07
  -3.745221109852107E-07  -3.840031821651427E-07  -3.937242677432353E-07
  -4.036914437097550E-07  -4.139109398692317E-07  -4.243891437342781E-07
  -4.351326045179804E-07  -4.461480372273554E-07  -4.574423268604353E-07
  -4.690225327095983E-07  -4.808958927738432E-07  -4.930698282827563E-07
  -5.055519483350035E-07  -5.183500546542485E-07  -5.314721464654627E-07
  -5.449264254946809E-07  -5.587213010953281E-07  -5.728653955043143E-07
  -5.873675492311915E-07  -6.022368265837341E-07  -6.174825213333998E-07
  -6.331141625242148E-07  -6.491415204287040E-07  -6.655746126546030E-07
  -6.824237104061534E-07  -6.996993449039093E-07  -7.174123139670582E-07
  -7.355736887623687E-07  -7.541948207239978E-07  -7.732873486484590E-07
  -7.928632059692110E-07  -8.129346282153964E-07  -8.335141606593949E-07
  -8.546146661579830E-07  -8.762493331919811E-07  -8.984316841094282E-07
  -9.211755835774372E-07  -9.444952472479955E-07  -9.684052506431516E-07
  -9.929205382651205E-07  -1.018056432937014E-06  -1.043828645380032E-06
  -1.070253284033094E-06  -1.097346865121056E-06  -1.125126322977805E-06
  -1.153609020630672E-06  -1.182812760652805E-06  -1.212755796290243E-06
  -1.243456842870695E-06  -1.274935089501113E-06  -1.307210211061388E-06
  -1.340302380501681E-06  -1.374232281451029E-06  -1.409021121145165E-06
  -1.444690643681578E-06  -1.481263143610135E-06  -1.518761479867751E-06
  -1.557209090065792E-06  -1.596630005139180E-06  -1.637048864366319E-06
  -1.678490930769262E-06  -1.720982106903719E-06  -1.764548951048777E-06
  -1.809218693806479E-06  -1.855019255121590E-06  -1.901979261732232E-06
  -1.950128065062269E-06  -1.999495759566624E-06  -2.050113201541013E-06
  -2.102012028407828E-06  -2.155224678490237E-06  -2.209784411286877E-06
  -2.265725328259744E-06  -2.323082394148379E-06  -2.381891458823559E-06
  -2.442189279694236E-06  -2.504013544681695E-06  -2.567402895775265E-06
  -2.632396953184364E-06  -2.699036340101913E-06  -2.767362708094637E-06
  -2.837418763136093E-06  -2.909248292298743E-06  -2.982896191121655E-06
  -3.058408491671065E-06  -3.135832391311241E-06  -3.215216282203662E-06
  -3.296609781552973E-06  -3.380063762618543E-06  -3.465630386511115E-06
  -3.553363134794329E-06  -3.643316842911523E-06  -3.735547734458763E-06
  -3.830113456325364E-06  -3.927073114724056E-06  -4.026487312133178E-06
  -4.128418185174028E-06  -4.232929443447095E-06  -4.340086409351285E-06
  -4.449956058911245E-06  -4.562607063638122E-06  -4.678109833449998E-06
  -4.796536560678845E-06  -4.917961265191380E-06  -5.042459840652208E-06
  -5.170110101957979E-06  -5.300991833872325E-06  -5.435186840891952E-06
  -5.572778998374940E-06  -5.713854304963391E-06  -5.858500936333029E-06
  -6.006809300303388E-06  -6.158872093343113E-06  -6.314784358505486E-06
  -6.474643544830609E-06  -6.638549568251217E-06  -6.806604874040219E-06
  -6.978914500839055E-06  -7.155586146306703E-06  -7.336730234430608E-06
  -7.522459984541394E-06  -7.712891482074567E-06  -7.908143751123480E-06
  -8.108338828828709E-06  -8.313601841650579E-06  -8.524061083572308E-06
  -8.739848096282703E-06  -8.961097751388597E-06  -9.187948334708122E-06
  -9.420541632697892E-06  -9.659023021067749E-06  -9.903541555638638E-06
  -1.015425006550038E-05  -1.041130524852732E-05  -1.067486776931195E-05
  -1.094510235957726E-05  -1.122217792113088E-05  -1.150626763142522E-05
  -1.179754905178948E-05  -1.209620423840128E-05  -1.240241985606724E-05
  -1.271638729488354E-05  -1.303830278984935E-05  -1.336836754350800E-05
  -1.370678785169215E-05  -1.405377523245209E-05  -1.440954655824717E-05
  -1.477432419148327E-05  -1.514833612348102E-05  -1.553181611696118E-05
  -1.592500385213676E-05  -1.632814507650277E-05  -1.674149175841727E-05
  -1.716530224456981E-05  -1.759984142143529E-05  -1.804538088081446E-05
  -1.850219908956435E-05  -1.897058156362450E-05  -1.945082104644811E-05
  -1.994321769194885E-05  -2.044807925207855E-05  -2.096572126915210E-05
  -2.149646727304017E-05  -2.204064898335296E-05  -2.259860651674066E-05
  -2.317068859944105E-05  -2.375725278520621E-05  -2.435866567874470E-05
  -2.497530316481916E-05  -2.560755064314154E-05  -2.625580326921364E-05
  -2.692046620126266E-05  -2.760195485342638E-05  -2.830069515534602E-05
  -2.901712381832850E-05  -2.975168860824502E-05  -3.050484862533581E-05
  -3.127707459109603E-05  -3.206884914242199E-05  -3.288066713320109E-05
  -3.371303594353407E-05  -3.456647579678281E-05  -3.544152008464092E-05
  -3.633871570043132E-05  -3.725862338083719E-05  -3.820181805628144E-05
  -3.916888921017223E-05  -4.016044124723927E-05  -4.117709387119100E-05
  -4.221948247192774E-05  -4.328825852255342E-05  -4.438408998643311E-05
  -4.550766173455054E-05  -4.665967597342655E-05  -4.784085268386446E-05
  -4.905193007079777E-05  -5.029366502451952E-05  -5.156683359358201E-05
  -5.287223146966207E-05  -5.421067448469307E-05  -5.558299912057638E-05
  -5.699006303178779E-05  -5.843274558120657E-05  -5.991194838950150E-05
  -6.142859589841492E-05  -6.298363594829880E-05  -6.457804037026105E-05
  -6.621280559329240E-05  -6.788895326675295E-05  -6.960753089860497E-05
  -7.136961250979213E-05  -7.317629930517235E-05  -7.502872036142219E-05
  -7.692803333234312E-05  -7.887542517200751E-05  -8.087211287619775E-05
  -8.291934424259855E-05  -8.501839865021792E-05  -8.717058785852228E-05
  -8.937725682678276E-05  -9.163978455414574E-05  -9.395958494094940E-05
  -9.633810767182358E-05  -9.877683912112425E-05  -1.012773032812646E-04
  -1.038410627145243E-04  -1.064697195289273E-04  -1.091649163787976E-04
  -1.119283374906168E-04  -1.147617097148197E-04  -1.176668036041871E-04
  -1.206454345195045E-04  -1.236994637631760E-04  -1.268307997415012E-04
  -1.300413991563339E-04  -1.333332682268711E-04  -1.367084639423279E-04
  -1.401690953462798E-04  -1.437173248534728E-04  -1.473553695999175E-04
  -1.510855028271125E-04  -1.549100553012527E-04  -1.588314167683099E-04
  -1.628520374458895E-04  -1.669744295527882E-04  -1.712011688772093E-04
  -1.755348963846070E-04  -1.799783198661595E-04  -1.845342156288989E-04
  -1.892054302285434E-04  -1.939948822461125E-04  -1.989055641094289E-04
  -2.039405439606363E-04  -2.091029675708980E-04  -2.143960603034574E-04
  -2.198231291262886E-04  -2.253875646755822E-04  -2.310928433713452E-04
  -2.369425295864347E-04  -2.429402778703624E-04  -2.490898352292592E-04
  -2.553950434634076E-04  -2.618598415637929E-04  -2.684882681691646E-04
  -2.752844640851200E-04  -2.822526748667846E-04  -2.893972534666810E-04
  -2.967226629494284E-04  -3.042334792749593E-04  -3.119343941519671E-04
  -3.198302179633619E-04  -3.279258827655394E-04  -3.362264453633187E-04
  -3.447370904624567E-04  -3.534631339016787E-04  -3.624100259662365E-04
  -3.715833547850312E-04  -3.809888498134092E-04  -3.906323854037752E-04
  -4.005199844662309E-04  -4.106578222215030E-04  -4.210522300484697E-04
  -4.317096994286659E-04  -4.426368859901994E-04  -4.538406136535653E-04
  -4.653278788819223E-04  -4.771058550384472E-04  -4.891818968534471E-04
  -5.015635450039887E-04  -5.142585308088496E-04  -5.272747810416967E-04
  -5.406204228654365E-04  -5.543037888907812E-04  -5.683334223621353E-04
  -5.827180824739778E-04  -5.974667498210241E-04  -6.125886319854933E-04
  -6.280931692649139E-04  -6.439900405439855E-04  -6.602891693140751E-04
  -6.770007298440589E-04  -6.941351535062644E-04  -7.117031352613953E-04
  -7.297156403064011E-04  -7.481839108893409E-04  -7.671194732954214E-04
  -7.865341450084608E-04  -8.064400420521418E-04  -8.268495865155434E-04
  -8.477755142675086E-04  -8.692308828645706E-04  -8.912290796572263E-04
  -9.137838300994924E-04  -9.369092062667911E-04  -9.606196355873165E-04
  -9.849299097922024E-04  -1.009855194089891E-03  -1.035411036570263E-03
  -1.061613377844220E-03  -1.088478560924528E-03  -1.116023341353906E-03
  -1.144264897586452E-03  -1.173220841628665E-03  -1.202909229946476E-03
  -1.233348574644818E-03  -1.264557854926490E-03  -1.296556528837145E-03
  -1.329364545303477E-03  -1.363002356471797E-03  -1.397490930354350E-03
  -1.432851763790976E-03  -1.469106895733789E-03  -1.506278920862828E-03
  -1.544391003540762E-03  -1.583466892114898E-03  -1.623530933575057E-03
  -1.664608088575917E-03  -1.706723946832744E-03  -1.749904742899606E-03
  -1.794177372339325E-03  -1.839569408294735E-03  -1.886109118470943E-03
  -1.933825482538564E-03  -1.982748209968114E-03  -2.032907758305958E-03
  -2.084335351902499E-03  -2.137063001103488E-03  -2.191123521915584E-03
  -2.246550556157599E-03  -2.303378592108992E-03  -2.361642985667631E-03
  -2.421379982028903E-03  -2.482626737898655E-03  -2.545421344252703E-03
  -2.609802849655814E-03  -2.675811284153568E-03  -2.743487683750559E-03
  -2.812874115488835E-03  -2.884013703140765E-03  -2.956950653530693E-03
  -3.031730283500266E-03  -3.108399047532413E-03  -3.187004566049415E-03
  -3.267595654400769E-03  -3.350222352556829E-03  -3.434935955524673E-03
  -3.521789044502799E-03  -3.610835518791723E-03  -3.702130628477861E-03
  -3.795731007908291E-03  -3.891694709974618E-03  -3.990081241224185E-03
  -4.090951597817457E-03  -4.194368302350686E-03  -4.300395441563227E-03
  -4.409098704949444E-03  -4.520545424295277E-03  -4.634804614160014E-03
  -4.751947013324222E-03  -4.872045127224953E-03  -4.995173271399972E-03
  -5.121407615962838E-03  -5.250826231131248E-03  -5.383509133831261E-03
  -5.519538335400370E-03  -5.658997890412878E-03  -5.801973946651202E-03
  -5.948554796247111E-03  -6.098830928017373E-03  -6.252895081018262E-03
  -6.410842299344105E-03  -6.572769988195054E-03  -6.738777971239585E-03
  -6.908968549297694E-03  -7.083446560370643E-03  -7.262319441043799E-03
  -7.445697289288973E-03  -7.633692928692964E-03  -7.826421974139398E-03
  -8.024002898970470E-03  -8.226557103656480E-03  -8.434208985999642E-03
  -8.647086012899926E-03  -8.865318793710371E-03  -9.089041155208592E-03
  -9.318390218212562E-03  -9.553506475866998E-03  -9.794533873627720E-03
  -1.004161989097094E-02  -1.029491562485326E-02  -1.055457587494932E-02
  -1.082075923069217E-02  -1.109362816014172E-02  -1.137334910070641E-02
  -1.166009255174098E-02  -1.195403316904496E-02  -1.225534986128298E-02
  -1.256422588834877E-02  -1.288084896169365E-02  -1.320541134663739E-02
  -1.353810996668045E-02  -1.387914650983272E-02  -1.422872753697388E-02
  -1.458706459225812E-02  -1.495437431557332E-02  -1.533087855706403E-02
  -1.571680449372341E-02  -1.611238474805788E-02  -1.651785750882548E-02
  -1.693346665384406E-02  -1.735946187486471E-02  -1.779609880449937E-02
  -1.824363914518915E-02  -1.870235080019609E-02  -1.917250800659332E-02
  -1.965439147022811E-02  -2.014828850262193E-02  -2.065449315976905E-02
  -2.117330638278805E-02  -2.170503614037168E-02  -2.224999757297653E-02
  -2.280851313868243E-02  -2.338091276064475E-02  -2.396753397605427E-02
  -2.456872208650578E-02  -2.518483030967060E-02  -2.581621993215236E-02
  -2.646326046339544E-02  -2.712632979050244E-02  -2.780581433380013E-02
  -2.850210920298225E-02  -2.921561835363679E-02  -2.994675474395127E-02
  -3.069594049137012E-02  -3.146360702895590E-02  -3.225019526118949E-02
  -3.305615571891617E-02  -3.388194871312419E-02  -3.472804448721565E-02
  -3.559492336739907E-02  -3.648307591080818E-02  -3.739300305091509E-02
  -3.832521623977533E-02  -3.928023758660694E-02  -4.025859999216332E-02
  -4.126084727832560E-02  -4.228753431229021E-02  -4.333922712468546E-02
  -4.441650302090287E-02  -4.551995068487097E-02  -4.665017027445276E-02
  -4.780777350758097E-02  -4.899338373818767E-02  -5.020763602091947E-02
  -5.145117716355321E-02  -5.272466576596167E-02  -5.402877224439082E-02
  -5.536417883973278E-02  -5.673157960838954E-02  -5.813168039422360E-02
  -5.956519878000175E-02  -6.103286401662408E-02  -6.253541692832590E-02
  -6.407360979192392E-02  -6.564820618804748E-02  -6.725998082217792E-02
  -6.890971931316965E-02  -7.059821794679096E-02  -7.232628339167049E-02
  -7.409473237486905E-02  -7.590439131414004E-02  -7.775609590375596E-02
  -7.965069065059974E-02  -8.158902835702968E-02  -8.357196954681473E-02
  -8.560038183024039E-02  -8.767513920425245E-02  -8.979712128328289E-02
  -9.196721245616767E-02  -9.418630096430454E-02  -9.645527789595930E-02
  -9.877503609134490E-02  -1.011464689528331E-01  -1.035704691543724E-01
  -1.060479272438829E-01  -1.085797301321137E-01  -1.111667594611203E-01
  -1.138098898452191E-01  -1.165099869769483E-01  -1.192679055902305E-01
  -1.220844872726186E-01  -1.249605581181523E-01  -1.278969262120351E-01
  -1.308943789380056E-01  -1.339536800989360E-01  -1.370755668408874E-01
  -1.402607463705159E-01  -1.435098924554337E-01  -1.468236416968423E-01
  -1.502025895634715E-01  -1.536472861756379E-01  -1.571582318279975E-01
  -1.607358722394007E-01  -1.643805935181221E-01  -1.680927168306245E-01
  -1.718724927620110E-01  -1.757200953563145E-01  -1.796356158249035E-01
  -1.836190559114411E-01  -1.876703209021269E-01  -1.917892122703351E-01
  -1.959754199452443E-01  -2.002285141947205E-01  -2.045479371134625E-01
  -2.089329937083904E-01  -2.133828425743811E-01  -2.178964861547664E-01
  -2.224727605825896E-01  -2.271103251003757E-01  -2.318076510582476E-01
  -2.365630104925671E-01  -2.413744642899145E-01  -2.462398499442596E-01
  -2.511567689185059E-01  -2.561225736253802E-01  -2.611343540468374E-01
  -2.661889240157658E-01  -2.712828071889730E-01  -2.764122227460356E-01
  -2.815730708548498E-01  -2.867609179515053E-01  -2.919709818894939E-01
  -2.971981170213616E-01  -3.024367992845914E-01  -3.076811113729579E-01
  -3.129247280847310E-01  -3.181609019499611E-01  -3.233824492507385E-01
  -3.285817365606648E-01  -3.337506679429318E-01  -3.388806729602822E-01
  -3.439626956647011E-01  -3.489871847500236E-01  -3.539440850665295E-01
  -3.588228307131455E-01  -3.636123399398756E-01  -3.683010121104682E-01
  -3.728767269930314E-01  -3.773268466640562E-01  -3.816382203290435E-01
  -3.857971923803523E-01  -3.897896140297544E-01  -3.936008588692636E-01
  -3.972158427286613E-01  -4.006190482114993E-01  -4.037945543027103E-01
  -4.067260714498322E-01  -4.093969825257491E-01  -4.117903900831004E-01
  -4.138891703085106E-01  -4.156760340777763E-01  -4.171335955003339E-01
  -4.182444483218713E-01  -4.189912505269029E-01  -4.193568174475280E-01
  -4.193242236393868E-01  -4.188769137299326E-01  -4.179988223764081E-01
  -4.166745033901882E-01  -4.148892679892476E-01  -4.126293320302261E-01
  -4.098819719447765E-01  -4.066356889604246E-01  -4.028803810230633E-01
  -3.986075216555038E-01  -3.938103447834441E-01  -3.884840343363158E-01
  -3.826259171853256E-01  -3.762356577148137E-01  -3.693154520361215E-01
  -3.618702195464696E-01  -3.539077892104088E-01  -3.454390776002013E-01
  -3.364782553770961E-01  -3.270428985313782E-01  -3.171541203300987E-01
  -3.068366795532754E-01  -2.961190602388159E-01  -2.850335178118764E-01
  -2.736160861551249E-01  -2.619065398935373E-01  -2.499483059334585E-01
  -2.377883181245783E-01  -2.254768088211487E-01  -2.130670311220958E-01
  -2.006149056875406E-01  -1.881785862816780E-01  -1.758179385999609E-01
  -1.635939275244995E-01  -1.515679087378004E-01  -1.398008216342358E-01
  -1.283522817230753E-01  -1.172795722371208E-01  -1.066365364659778E-01
  -9.647237443804570E-02  -8.683034999189457E-02  -7.774641701153104E-02
  -6.924777664961801E-02  -6.135138071835415E-02  -5.406240006880528E-02
  -4.737268067377160E-02  -4.125921423024032E-02  -3.568265434268694E-02
  -3.059611766370074E-02  -2.598032552372509E-02  -2.182254811147188E-02
  -1.810787934949953E-02  -1.481933102005273E-02  -1.193793319052350E-02
  -9.442840239710981E-03  -7.311441821256315E-03  -5.519478154097701E-03
  -4.041159102286862E-03  -2.849286599041156E-03  -1.915380082884721E-03
  -1.209804747604015E-03  -7.019025628579589E-04  -3.601261982538739E-04
  -1.521761806630995E-04  -4.514183152737328E-05  -5.646767239575468E-06
   0.000000000000000E+00   0.000000000000000E+00   0.000000000000000E+00
   0.000000000000000E+00   0.000000000000000E+00   0.000000000000000E+00
   0.000000000000000E+00   0.000000000000000E+00   0.000000000000000E+00
   0.000000000000000E+00   0.000000000000000E+00   0.000000000000000E+00
   0.000000000000000E+00   0.000000000000000E+00   0.000000000000000E+00
   0.000000000000000E+00   0.000000000000000E+00   0.000000000000000E+00
   0.000000000000000E+00   0.000000000000000E+00   0.000000000000000E+00
   0.000000000000000E+00   0.000000000000000E+00   0.000000000000000E+00
   0.000000000000000E+00   0.000000000000000E+00   0.000000000000000E+00
   0.000000000000000E+00   0.000000000000000E+00   0.000000000000000E+00
   0.000000000000000E+00   0.000000000000000E+00   0.000000000000000E+00
   0.000000000000000E+00   0.000000000000000E+00   0.000000000000000E+00
   0.000000000000000E+00   0.000000000000000E+00   0.000000000000000E+00
   0.000000000000000E+00   0.000000000000000E+00   0.000000000000000E+00
   0.000000000000000E+00   0.000000000000000E+00   0.000000000000000E+00
   0.000000000000000E+00   0.000000000000000E+00   0.000000000000000E+00
   0.000000000000000E+00   0.000000000000000E+00   0.000000000000000E+00
   0.000000000000000E+00   0.000000000000000E+00   0.000000000000000E+00
   0.000000000000000E+00   0.000000000000000E+00   0.000000000000000E+00
   0.000000000000000E+00   0.000000000000000E+00   0.000000000000000E+00
   0.000000000000000E+00   0.000000000000000E+00   0.000000000000000E+00
   0.000000000000000E+00   0.000000000000000E+00   0.000000000000000E+00
   0.000000000000000E+00   0.000000000000000E+00   0.000000000000000E+00
   0.000000000000000E+00   0.000000000000000E+00   0.000000000000000E+00
   0.000000000000000E+00   0.000000000000000E+00   0.000000000000000E+00
   0.000000000000000E+00   0.000000000000000E+00   0.000000000000000E+00
   0.000000000000000E+00   0.000000000000000E+00   0.000000000000000E+00
   0.000000000000000E+00   0.000000000000000E+00   0.000000000000000E+00
   0.000000000000000E+00   0.000000000000000E+00   0.000000000000000E+00
   0.000000000000000E+00   0.000000000000000E+00   0.000000000000000E+00
   0.000000000000000E+00   0.000000000000000E+00   0.000000000000000E+00
   0.000000000000000E+00   0.000000000000000E+00   0.000000000000000E+00
   0.000000000000000E+00   0.000000000000000E+00   0.000000000000000E+00
   0.000000000000000E+00   0.000000000000000E+00   0.000000000000000E+00
   0.000000000000000E+00   0.000000000000000E+00   0.000000000000000E+00
   0.000000000000000E+00   0.000000000000000E+00   0.000000000000000E+00
   0.000000000000000E+00   0.000000000000000E+00   0.000000000000000E+00
   0.000000000000000E+00   0.000000000000000E+00   0.000000000000000E+00
   0.000000000000000E+00   0.000000000000000E+00   0.000000000000000E+00
   0.000000000000000E+00   0.000000000000000E+00   0.000000000000000E+00
   0.000000000000000E+00   0.000000000000000E+00   0.000000000000000E+00
   0.000000000000000E+00   0.000000000000000E+00   0.000000000000000E+00
   0.000000000000000E+00   0.000000000000000E+00   0.000000000000000E+00
   0.000000000000000E+00   0.000000000000000E+00   0.000000000000000E+00
   0.000000000000000E+00   0.000000000000000E+00   0.000000000000000E+00
   0.000000000000000E+00   0.000000000000000E+00   0.000000000000000E+00
   0.000000000000000E+00   0.000000000000000E+00   0.000000000000000E+00
   0.000000000000000E+00   0.000000000000000E+00   0.000000000000000E+00
   0.000000000000000E+00   0.000000000000000E+00   0.000000000000000E+00
   0.000000000000000E+00   0.000000000000000E+00   0.000000000000000E+00
   0.000000000000000E+00   0.000000000000000E+00   0.000000000000000E+00
   0.000000000000000E+00   0.000000000000000E+00   0.000000000000000E+00
   0.000000000000000E+00   0.000000000000000E+00   0.000000000000000E+00
   0.000000000000000E+00   0.000000000000000E+00   0.000000000000000E+00
   0.000000000000000E+00   0.000000000000000E+00   0.000000000000000E+00
   0.000000000000000E+00   0.000000000000000E+00   0.000000000000000E+00
   0.000000000000000E+00   0.000000000000000E+00   0.000000000000000E+00
   0.000000000000000E+00   0.000000000000000E+00   0.000000000000000E+00
   0.000000000000000E+00   0.000000000000000E+00   0.000000000000000E+00
   0.000000000000000E+00   0.000000000000000E+00   0.000000000000000E+00
   0.000000000000000E+00   0.000000000000000E+00   0.000000000000000E+00
   0.000000000000000E+00   0.000000000000000E+00   0.000000000000000E+00
   0.000000000000000E+00   0.000000000000000E+00   0.000000000000000E+00
   0.000000000000000E+00   0.000000000000000E+00   0.000000000000000E+00
   0.000000000000000E+00   0.000000000000000E+00   0.000000000000000E+00
   0.000000000000000E+00   0.000000000000000E+00   0.000000000000000E+00
   0.000000000000000E+00   0.000000000000000E+00   0.000000000000000E+00
   0.000000000000000E+00   0.000000000000000E+00   0.000000000000000E+00
   0.000000000000000E+00   0.000000000000000E+00   0.000000000000000E+00
   0.000000000000000E+00   0.000000000000000E+00   0.000000000000000E+00
   0.000000000000000E+00   0.000000000000000E+00   0.000000000000000E+00
   0.000000000000000E+00   0.000000000000000E+00   0.000000000000000E+00
   0.000000000000000E+00   0.000000000000000E+00   0.000000000000000E+00
   0.000000000000000E+00   0.000000000000000E+00   0.000000000000000E+00
   0.000000000000000E+00   0.000000000000000E+00   0.000000000000000E+00
   0.000000000000000E+00   0.000000000000000E+00   0.000000000000000E+00
   0.000000000000000E+00   0.000000000000000E+00   0.000000000000000E+00
   0.000000000000000E+00   0.000000000000000E+00   0.000000000000000E+00
   0.000000000000000E+00   0.000000000000000E+00   0.000000000000000E+00
   0.000000000000000E+00   0.000000000000000E+00   0.000000000000000E+00
   0.000000000000000E+00   0.000000000000000E+00   0.000000000000000E+00
   0.000000000000000E+00   0.000000000000000E+00   0.000000000000000E+00
   0.000000000000000E+00   0.000000000000000E+00   0.000000000000000E+00
   0.000000000000000E+00   0.000000000000000E+00   0.000000000000000E+00
   0.000000000000000E+00   0.000000000000000E+00   0.000000000000000E+00
   0.000000000000000E+00   0.000000000000000E+00   0.000000000000000E+00
   0.000000000000000E+00   0.000000000000000E+00   0.000000000000000E+00
   0.000000000000000E+00   0.000000000000000E+00   0.000000000000000E+00
   0.000000000000000E+00   0.000000000000000E+00   0.000000000000000E+00
   0.000000000000000E+00   0.000000000000000E+00   0.000000000000000E+00
   0.000000000000000E+00   0.000000000000000E+00   0.000000000000000E+00
   0.000000000000000E+00   0.000000000000000E+00   0.000000000000000E+00
   0.000000000000000E+00   0.000000000000000E+00   0.000000000000000E+00
   0.000000000000000E+00   0.000000000000000E+00   0.000000000000000E+00
   0.000000000000000E+00   0.000000000000000E+00   0.000000000000000E+00
   0.000000000000000E+00   0.000000000000000E+00   0.000000000000000E+00
   0.000000000000000E+00   0.000000000000000E+00   0.000000000000000E+00
   0.000000000000000E+00   0.000000000000000E+00   0.000000000000000E+00
   0.000000000000000E+00   0.000000000000000E+00   0.000000000000000E+00
   0.000000000000000E+00   0.000000000000000E+00   0.000000000000000E+00
   0.000000000000000E+00   0.000000000000000E+00   0.000000000000000E+00
   0.000000000000000E+00   0.000000000000000E+00   0.000000000000000E+00
   0.000000000000000E+00   0.000000000000000E+00   0.000000000000000E+00
   0.000000000000000E+00   0.000000000000000E+00   0.000000000000000E+00
   0.000000000000000E+00   0.000000000000000E+00   0.000000000000000E+00
   0.000000000000000E+00   0.000000000000000E+00
      </PP_QIJL.1.1.0>
      <PP_QIJL.1.2.0 first_index="1" second_index="2" composite_index="2" angular_momentum="0" size="1211">
  -8.226442666284976E-10  -8.434696053733369E-10  -8.648221400777670E-10
  -8.867152167710078E-10  -9.091625193386197E-10  -9.321780780753694E-10
  -9.557762784546260E-10  -9.799718701197486E-10  -1.004779976103091E-09
  -1.030216102278397E-09  -1.056296147052466E-09  -1.083036411302181E-09
  -1.110453608563082E-09  -1.138564875475876E-09  -1.167387782497394E-09
  -1.196940344882691E-09  -1.227241033945175E-09  -1.258308788601773E-09
  -1.290163027210373E-09  -1.322823659706935E-09  -1.356311100049839E-09
  -1.390646278979275E-09  -1.425850657099644E-09  -1.461946238293123E-09
  -1.498955583472824E-09  -1.536901824684078E-09  -1.575808679562731E-09
  -1.615700466159431E-09  -1.656602118139202E-09  -1.698539200365803E-09
  -1.741537924880588E-09  -1.785625167285890E-09  -1.830828483543148E-09
  -1.877176127196277E-09  -1.924697067031060E-09  -1.973421005181566E-09
  -2.023378395694962E-09  -2.074600463566281E-09  -2.127119224255053E-09
  -2.180967503696027E-09  -2.236178958816423E-09  -2.292788098572623E-09
  -2.350830305519385E-09  -2.410341857925092E-09  -2.471359952446860E-09
  -2.533922727379634E-09  -2.598069286493884E-09  -2.663839723476728E-09
  -2.731275146991780E-09  -2.800417706373431E-09  -2.871310617971514E-09
  -2.943998192162953E-09  -3.018525861047190E-09  -3.094940206842703E-09
  -3.173288991002450E-09  -3.253621184066279E-09  -3.335986996269142E-09
  -3.420437908924112E-09  -3.507026706599875E-09  -3.595807510112823E-09
  -3.686835810354293E-09  -3.780168502974195E-09  -3.875863923942643E-09
  -3.973981886011821E-09  -4.074583716100930E-09  -4.177732293627460E-09
  -4.283492089808902E-09  -4.391929207959346E-09  -4.503111424806187E-09
  -4.617108232852824E-09  -4.733990883813678E-09  -4.853832433148874E-09
  -4.976707785726244E-09  -5.102693742639326E-09  -5.231869049210552E-09
  -5.364314444209599E-09  -5.500112710317763E-09  -5.639348725869833E-09
  -5.782109517905785E-09  -5.928484316565551E-09  -6.078564610860701E-09
  -6.232444205858082E-09  -6.390219281311027E-09  -6.551988451774804E-09
  -6.717852828243972E-09  -6.887916081349958E-09  -7.062284506158628E-09
  -7.241067088608133E-09  -7.424375573628642E-09  -7.612324534986615E-09
  -7.805031446897046E-09  -8.002616757448712E-09  -8.205203963888119E-09
  -8.412919689809287E-09  -8.625893764297654E-09  -8.844259303077393E-09
  -9.068152791713107E-09  -9.297714170917718E-09  -9.533086924019958E-09
  -9.774418166646143E-09  -1.002185873867214E-08  -1.027556329850323E-08
  -1.053569041974062E-08  -1.080240269029506E-08  -1.107586681400964E-08
  -1.135625371485501E-08  -1.164373864376242E-08  -1.193850128816129E-08
  -1.224072588428958E-08  -1.255060133234756E-08  -1.286832131456640E-08
  -1.319408441626594E-08  -1.352809424997688E-08  -1.387055958270528E-08
  -1.422169446641871E-08  -1.458171837183557E-08  -1.495085632560146E-08
  -1.532933905093812E-08  -1.571740311185290E-08  -1.611529106099898E-08
  -1.652325159127853E-08  -1.694153969128390E-08  -1.737041680467369E-08
  -1.781015099358355E-08  -1.826101710617369E-08  -1.872329694841780E-08
  -1.919727946024096E-08  -1.968326089611640E-08  -2.018154501023414E-08
  -2.069244324635726E-08  -2.121627493248415E-08  -2.175336748043895E-08
  -2.230405659051449E-08  -2.286868646129575E-08  -2.344761000479532E-08
  -2.404118906703447E-08  -2.464979465420885E-08  -2.527380716457924E-08
  -2.591361662623267E-08  -2.656962294086282E-08  -2.724223613372114E-08
  -2.793187660989604E-08  -2.863897541707962E-08  -2.936397451498632E-08
  -3.010732705159209E-08  -3.086949764636630E-08  -3.165096268067397E-08
  -3.245221059552953E-08  -3.327374219688798E-08  -3.411607096866501E-08
  -3.497972339368076E-08  -3.586523928272845E-08  -3.677317211197373E-08
  -3.770408936889480E-08  -3.865857290698071E-08  -3.963721930940797E-08
  -4.064064026192453E-08  -4.166946293517298E-08  -4.272433037669213E-08
  -4.380590191284275E-08  -4.491485356090715E-08  -4.605187845162206E-08
  -4.721768726240737E-08  -4.841300866156223E-08  -4.963858976370649E-08
  -5.089519659675030E-08  -5.218361458068730E-08  -5.350464901850615E-08
  -5.485912559953110E-08  -5.624789091550454E-08  -5.767181298973279E-08
  -5.913178181962973E-08  -6.062870993299248E-08  -6.216353295836077E-08
  -6.373721020981504E-08  -6.535072528657697E-08  -6.700508668779200E-08
  -6.870132844287208E-08  -7.044051075779726E-08  -7.222372067777873E-08
  -7.405207276669526E-08  -7.592670980373259E-08  -7.784880349765525E-08
  -7.981955521916245E-08  -8.184019675178297E-08  -8.391199106177751E-08
  -8.603623308753464E-08  -8.821425054894623E-08  -9.044740477727528E-08
  -9.273709156603132E-08  -9.508474204338357E-08  -9.749182356666354E-08
  -9.995984063950758E-08  -1.024903358522195E-07  -1.050848908459390E-07
  -1.077451273012148E-07  -1.104727079516084E-07  -1.132693376229526E-07
  -1.161367642989218E-07  -1.190767802135771E-07  -1.220912229715664E-07
  -1.251819766966876E-07  -1.283509732095220E-07  -1.316001932348836E-07
  -1.349316676398343E-07  -1.383474787030363E-07  -1.418497614162443E-07
  -1.454407048187387E-07  -1.491225533655436E-07  -1.528976083302822E-07
  -1.567682292435402E-07  -1.607368353676492E-07  -1.648059072087969E-07
  -1.689779880674211E-07  -1.732556856278510E-07  -1.776416735881870E-07
  -1.821386933314478E-07  -1.867495556390152E-07  -1.914771424474589E-07
  -1.963244086498364E-07  -2.012943839425867E-07  -2.063901747191874E-07
  -2.116149660117408E-07  -2.169720234817163E-07  -2.224646954610888E-07
  -2.280964150451429E-07  -2.338707022382654E-07  -2.397911661540496E-07
  -2.458615072711000E-07  -2.520855197459442E-07  -2.584670937844885E-07
  -2.650102180735180E-07  -2.717189822737390E-07  -2.785975795759392E-07
  -2.856503093218583E-07  -2.928815796913960E-07  -3.002959104578613E-07
  -3.078979358129576E-07  -3.156924072632882E-07  -3.236841966001894E-07
  -3.318782989447338E-07  -3.402798358698337E-07  -3.488940586013646E-07
  -3.577263513003348E-07  -3.667822344281402E-07  -3.760673681970077E-07
  -3.855875561077903E-07  -3.953487485773178E-07  -4.053570466575745E-07
  -4.156187058490294E-07  -4.261401400104959E-07  -4.369279253679752E-07
  -4.479888046249752E-07  -4.593296911768897E-07  -4.709576734320585E-07
  -4.828800192422149E-07  -4.951041804450937E-07  -5.076377975220266E-07
  -5.204887043734519E-07  -5.336649332153108E-07  -5.471747195993943E-07
  -5.610265075607840E-07  -5.752289548955924E-07  -5.897909385723126E-07
  -6.047215602801570E-07  -6.200301521178430E-07  -6.357262824263975E-07
  -6.518197617696114E-07  -6.683206490658904E-07  -6.852392578753329E-07
  -7.025861628459571E-07  -7.203722063231240E-07  -7.386085051262627E-07
  -7.573064574971547E-07  -7.764777502241122E-07  -7.961343659464938E-07
  -8.162885906441447E-07  -8.369530213164162E-07  -8.581405738555832E-07
  -8.798644911195774E-07  -9.021383512090689E-07  -9.249760759540887E-07
  -9.483919396154782E-07  -9.724005778066166E-07  -9.970169966409983E-07
  -1.022256582111371E-06  -1.048135109706312E-06  -1.074668754270230E-06
  -1.101874100112980E-06  -1.129768151375393E-06  -1.158368342657198E-06
  -1.187692549913993E-06  -1.217759101630059E-06  -1.248586790274009E-06
  -1.280194884044437E-06  -1.312603138912882E-06  -1.345831810971674E-06
  -1.379901669094340E-06  -1.414834007916505E-06  -1.450650661145402E-06
  -1.487374015206288E-06  -1.525027023234322E-06  -1.563633219420623E-06
  -1.603216733721501E-06  -1.643802306940032E-06  -1.685415306189403E-06
  -1.728081740747716E-06  -1.771828278314123E-06  -1.816682261676475E-06
  -1.862671725800913E-06  -1.909825415354033E-06  -1.958172802668639E-06
  -2.007744106164254E-06  -2.058570309233940E-06  -2.110683179609223E-06
  -2.164115289215191E-06  -2.218900034528243E-06  -2.275071657449119E-06
  -2.332665266704350E-06  -2.391716859789434E-06  -2.452263345467478E-06
  -2.514342566837364E-06  -2.577993324985853E-06  -2.643255403238412E-06
  -2.710169592023900E-06  -2.778777714368706E-06  -2.849122652036162E-06
  -2.921248372327704E-06  -2.995199955562416E-06  -3.071023623252192E-06
  -3.148766766990110E-06  -3.228477978070019E-06  -3.310207077855956E-06
  -3.394005148920257E-06  -3.479924566969893E-06  -3.568019033580976E-06
  -3.658343609761804E-06  -3.750954750365566E-06  -3.845910339374080E-06
  -3.943269726074670E-06  -4.043093762152824E-06  -4.145444839723664E-06
  -4.250386930326204E-06  -4.357985624904582E-06  -4.468308174801335E-06
  -4.581423533788353E-06  -4.697402401161640E-06  -4.816317265927000E-06
  -4.938242452104110E-06  -5.063254165177334E-06  -5.191430539722361E-06
  -5.322851688238250E-06  -5.457599751215639E-06  -5.595758948472181E-06
  -5.737415631787403E-06  -5.882658338869871E-06  -6.031577848690260E-06
  -6.184267238215074E-06  -6.340821940576338E-06  -6.501339804713629E-06
  -6.665921156525782E-06  -6.834668861570281E-06  -7.007688389349780E-06
  -7.185087879225686E-06  -7.366978208000078E-06  -7.553473059208236E-06
  -7.744688994164860E-06  -7.940745524808656E-06  -8.141765188390536E-06
  -8.347873624052238E-06  -8.559199651343196E-06  -8.775875350724522E-06
  -8.998036146110706E-06  -9.225820889500305E-06  -9.459371947748629E-06
  -9.698835291536667E-06  -9.944360586591558E-06  -1.019610128721598E-05
  -1.045421473218457E-05  -1.071886224306733E-05  -1.099020922504162E-05
  -1.126842527025533E-05  -1.155368426380619E-05  -1.184616449240311E-05
  -1.214604875577755E-05  -1.245352448091447E-05  -1.276878383917428E-05
  -1.309202386637856E-05  -1.342344658593515E-05  -1.376325913507897E-05
  -1.411167389430763E-05  -1.446890862009273E-05  -1.483518658094934E-05
  -1.521073669694914E-05  -1.559579368276396E-05  -1.599059819432906E-05
  -1.639539697921805E-05  -1.681044303082270E-05  -1.723599574643459E-05
  -1.767232108932678E-05  -1.811969175493700E-05  -1.857838734125590E-05
  -1.904869452352669E-05  -1.953090723336550E-05  -2.002532684241396E-05
  -2.053226235063872E-05  -2.105203057939573E-05  -2.158495636937892E-05
  -2.213137278357806E-05  -2.269162131537147E-05  -2.326605210188360E-05
  -2.385502414274134E-05  -2.445890552436435E-05  -2.507807364993049E-05
  -2.571291547515918E-05  -2.636382775005995E-05  -2.703121726679729E-05
  -2.771550111382570E-05  -2.841710693645439E-05  -2.913647320400350E-05
  -2.987404948371879E-05  -3.063029672161563E-05  -3.140568753042716E-05
  -3.220070648483656E-05  -3.301585042417761E-05  -3.385162876279163E-05
  -3.470856380823553E-05  -3.558719108753772E-05  -3.648805968170697E-05
  -3.741173256870170E-05  -3.835878697507385E-05  -3.932981473650670E-05
  -4.032542266747070E-05  -4.134623294022862E-05  -4.239288347342570E-05
  -4.346602833050680E-05  -4.456633812820959E-05  -4.569450045538694E-05
  -4.685122030242108E-05  -4.803722050149591E-05  -4.925324217800198E-05
  -5.050004521335587E-05  -5.177840871952085E-05  -5.308913152552628E-05
  -5.443303267628691E-05  -5.581095194403373E-05  -5.722375035267486E-05
  -5.867231071541151E-05  -6.015753818594575E-05  -6.168036082362152E-05
  -6.324173017285123E-05  -6.484262185718907E-05  -6.648403618841869E-05
  -6.816699879103672E-05  -6.989256124251919E-05  -7.166180172976865E-05
  -7.347582572215214E-05  -7.533576666154521E-05  -7.724278666981539E-05
  -7.919807727418078E-05  -8.120286015089739E-05  -8.325838788773645E-05
  -8.536594476572456E-05  -8.752684756063432E-05  -8.974244636472201E-05
  -9.201412542922262E-05  -9.434330402812683E-05  -9.673143734377360E-05
  -9.918001737481115E-05  -1.016905738670884E-04  -1.042646752680536E-04
  -1.069039297052557E-04  -1.096099859895496E-04  -1.123845346436351E-04
  -1.152293089565603E-04  -1.181460860648479E-04  -1.211366880609131E-04
  -1.242029831294576E-04  -1.273468867125491E-04  -1.305703627041031E-04
  -1.338754246745087E-04  -1.372641371261579E-04  -1.407386167806522E-04
  -1.443010338984865E-04  -1.479536136320258E-04  -1.516986374126096E-04
  -1.555384443726465E-04  -1.594754328035707E-04  -1.635120616505694E-04
  -1.676508520450001E-04  -1.718943888754439E-04  -1.762453223983700E-04
  -1.807063698893967E-04  -1.852803173361780E-04  -1.899700211739526E-04
  -1.947784100648292E-04  -1.997084867219057E-04  -2.047633297793406E-04
  -2.099460957095381E-04  -2.152600207886190E-04  -2.207084231113912E-04
  -2.262947046570621E-04  -2.320223534069547E-04  -2.378949455155411E-04
  -2.439161475361192E-04  -2.500897187025018E-04  -2.564195132681238E-04
  -2.629094829039930E-04  -2.695636791569676E-04  -2.763862559698595E-04
  -2.833814722649093E-04  -2.905536945922207E-04  -2.979073998447657E-04
  -3.054471780416334E-04  -3.131777351812160E-04  -3.211038961660804E-04
  -3.292306078013121E-04  -3.375629418681575E-04  -3.461060982748453E-04
  -3.548654082865073E-04  -3.638463378361642E-04  -3.730544909187960E-04
  -3.824956130705573E-04  -3.921755949352622E-04  -4.021004759202972E-04
  -4.122764479441873E-04  -4.227098592780906E-04  -4.334072184835430E-04
  -4.443751984488487E-04  -4.556206405265544E-04  -4.671505587745096E-04
  -4.789721443030821E-04  -4.910927697311409E-04  -5.035199937535111E-04
  -5.162615658226418E-04  -5.293254309473108E-04  -5.427197346112541E-04
  -5.564528278146686E-04  -5.705332722416255E-04  -5.849698455564880E-04
  -5.997715468325021E-04  -6.149476021158204E-04  -6.305074701282682E-04
  -6.464608481122721E-04  -6.628176778214288E-04  -6.795881516602815E-04
  -6.967827189769611E-04  -7.144120925124182E-04  -7.324872550100861E-04
  -7.510194659898823E-04  -7.700202686905535E-04  -7.895014971844771E-04
  -8.094752836690906E-04  -8.299540659392732E-04  -8.509505950450509E-04
  -8.724779431391249E-04  -8.945495115188344E-04  -9.171790388672299E-04
  -9.403806096981018E-04  -9.641686630098645E-04  -9.885580011533388E-04
  -1.013563798918582E-03  -1.039201612846023E-03  -1.065487390767296E-03
  -1.092437481581284E-03  -1.120068645270976E-03  -1.148398063166931E-03
  -1.177443348463187E-03  -1.207222556991672E-03  -1.237754198261231E-03
  -1.269057246767569E-03  -1.301151153580533E-03  -1.334055858215248E-03
  -1.367791800793886E-03  -1.402379934504837E-03  -1.437841738366326E-03
  -1.474199230301602E-03  -1.511474980532969E-03  -1.549692125302155E-03
  -1.588874380924592E-03  -1.629046058185364E-03  -1.670232077084792E-03
  -1.712457981941665E-03  -1.755749956862458E-03  -1.800134841584903E-03
  -1.845640147704513E-03  -1.892294075292838E-03  -1.940125529916360E-03
  -1.989164140065174E-03  -2.039440275000718E-03  -2.090985063032022E-03
  -2.143830410230166E-03  -2.198009019590685E-03  -2.253554410654067E-03
  -2.310500939594429E-03  -2.368883819786822E-03  -2.428739142863742E-03
  -2.490103900271554E-03  -2.553016005337849E-03  -2.617514315860851E-03
  -2.683638657232173E-03  -2.751429846104509E-03  -2.820929714615889E-03
  -2.892181135182478E-03  -2.965228045871950E-03  -3.040115476369734E-03
  -3.116889574550602E-03  -3.195597633668184E-03  -3.276288120175333E-03
  -3.359010702188249E-03  -3.443816278607595E-03  -3.530757008909972E-03
  -3.619886343623176E-03  -3.711259055499060E-03  -3.804931271397746E-03
  -3.900960504897216E-03  -3.999405689642434E-03  -4.100327213448239E-03
  -4.203786953170498E-03  -4.309848310359987E-03  -4.418576247713684E-03
  -4.530037326338263E-03  -4.644299743840512E-03  -4.761433373259796E-03
  -4.881509802857370E-03  -5.004602376777729E-03  -5.130786236597003E-03
  -5.260138363773491E-03  -5.392737623015498E-03  -5.528664806581522E-03
  -5.668002679527800E-03  -5.810836025918318E-03  -5.957251696011970E-03
  -6.107338654441857E-03  -6.261188029401238E-03  -6.418893162850608E-03
  -6.580549661760238E-03  -6.746255450402014E-03  -6.916110823704509E-03
  -7.090218501684600E-03  -7.268683684968635E-03  -7.451614111415985E-03
  -7.639120113856783E-03  -7.831314678956111E-03  -8.028313507215152E-03
  -8.230235074120075E-03  -8.437200692448681E-03  -8.649334575743182E-03
  -8.866763902958239E-03  -9.089618884290732E-03  -9.318032828198016E-03
  -9.552142209610122E-03  -9.792086739339338E-03  -1.003800943469087E-02
  -1.029005669127532E-02  -1.054837835602330E-02  -1.081312780140097E-02
  -1.108446200082230E-02  -1.136254160525408E-02  -1.164753102100561E-02
  -1.193959848869420E-02  -1.223891616337542E-02  -1.254566019582313E-02
  -1.286001081494386E-02  -1.318215241130526E-02  -1.351227362175653E-02
  -1.385056741511576E-02  -1.419723117889394E-02  -1.455246680702449E-02
  -1.491648078856034E-02  -1.528948429729852E-02  -1.567169328228733E-02
  -1.606332855916501E-02  -1.646461590227655E-02  -1.687578613750691E-02
  -1.729707523576507E-02  -1.772872440704767E-02  -1.817098019500187E-02
  -1.862409457190415E-02  -1.908832503396062E-02  -1.956393469682918E-02
  -2.005119239125562E-02  -2.055037275870451E-02  -2.106175634686054E-02
  -2.158562970486231E-02  -2.212228547812247E-02  -2.267202250257726E-02
  -2.323514589819439E-02  -2.381196716155984E-02  -2.440280425734689E-02
  -2.500798170845987E-02  -2.562783068462992E-02  -2.626268908922281E-02
  -2.691290164400564E-02  -2.757881997159875E-02  -2.826080267532293E-02
  -2.895921541613318E-02  -2.967443098630666E-02  -3.040682937953610E-02
  -3.115679785705180E-02  -3.192473100937507E-02  -3.271103081328059E-02
  -3.351610668351472E-02  -3.434037551879485E-02  -3.518426174157909E-02
  -3.604819733106808E-02  -3.693262184886820E-02  -3.783798245670671E-02
  -3.876473392555899E-02  -3.971333863550364E-02  -4.068426656558476E-02
  -4.167799527291863E-02  -4.269500986023256E-02  -4.373580293098427E-02
  -4.480087453115392E-02  -4.589073207675307E-02  -4.700589026604196E-02
  -4.814687097538346E-02  -4.931420313761136E-02  -5.050842260171947E-02
  -5.173007197261825E-02  -5.297970042963699E-02  -5.425786352237276E-02
  -5.556512294242117E-02  -5.690204626943658E-02  -5.826920668989398E-02
  -5.966718268683955E-02  -6.109655769882153E-02  -6.255791974611108E-02
  -6.405186102221622E-02  -6.557897744859771E-02  -6.713986819039366E-02
  -6.873513513084220E-02  -7.036538230199361E-02  -7.203121526917403E-02
  -7.373324046655189E-02  -7.547206448103361E-02  -7.724829328158123E-02
  -7.906253139092440E-02  -8.091538099649326E-02  -8.280744099726638E-02
  -8.473930598309004E-02  -8.671156514286814E-02  -8.872480109789140E-02
  -9.077958865640949E-02  -9.287649348540825E-02  -9.501607069540029E-02
  -9.719886333387580E-02  -9.942540078291975E-02  -1.016961970563344E-01
  -1.040117489914639E-01  -1.063725343307695E-01  -1.087790096880445E-01
  -1.112316083940406E-01  -1.137307382161170E-01  -1.162767789464178E-01
  -1.188700798529582E-01  -1.215109569878883E-01  -1.241996903471291E-01
  -1.269365208754811E-01  -1.297216473112623E-01  -1.325552228644993E-01
  -1.354373517226730E-01  -1.383680853780598E-01  -1.413474187707442E-01
  -1.443752862414800E-01  -1.474515572887079E-01  -1.505760321242051E-01
  -1.537484370220949E-01  -1.569684194562059E-01  -1.602355430211537E-01
  -1.635492821329213E-01  -1.669090165052312E-01  -1.703140253986034E-01
  -1.737634816396601E-01  -1.772564454090676E-01  -1.807918577973851E-01
  -1.843685341291526E-01  -1.879851570567219E-01  -1.916402694266467E-01
  -1.953322669229658E-01  -1.990593904933467E-01  -2.028197185659340E-01
  -2.066111590668054E-01  -2.104314412501949E-01  -2.142781073561907E-01
  -2.181485041133443E-01  -2.220397741066852E-01  -2.259488470349413E-01
  -2.298724308843698E-01  -2.338070030505642E-01  -2.377488014438328E-01
  -2.416938156183865E-01  -2.456377779705440E-01  -2.495761550565034E-01
  -2.535041390860011E-01  -2.574166396542950E-01  -2.613082757814781E-01
  -2.651733683350979E-01  -2.690059329194075E-01  -2.727996733224040E-01
  -2.765479756199614E-01  -2.802439030449723E-01  -2.838801917383547E-01
  -2.874492475080526E-01  -2.909431437317752E-01  -2.943536205490304E-01
  -2.976720854980624E-01  -3.008896157634564E-01  -3.039969622103423E-01
  -3.069845553912723E-01  -3.098425137217382E-01  -3.125606540298995E-01
  -3.151285046951714E-01  -3.175353215987065E-01  -3.197701071163127E-01
  -3.218216323906778E-01  -3.236784631247163E-01  -3.253289891410497E-01
  -3.267614579537841E-01  -3.279640125974657E-01  -3.289247339539612E-01
  -3.296316878106008E-01  -3.300729768717174E-01  -3.302367979302241E-01
  -3.301115043855131E-01  -3.296856742681256E-01  -3.289481838997333E-01
  -3.278882872782860E-01  -3.264957012320492E-01  -3.247606963319772E-01
  -3.226741934887054E-01  -3.202278660876928E-01  -3.174142474330002E-01
  -3.142268431761629E-01  -3.106602483009798E-01  -3.067102681172445E-01
  -3.023740425859910E-01  -2.976501731553755E-01  -2.925388511297124E-01
  -2.870419864243061E-01  -2.811633353759647E-01  -2.749086260837683E-01
  -2.682856795477472E-01  -2.613045246557918E-01  -2.539775048429094E-01
  -2.463193740141979E-01  -2.383473790861337E-01  -2.300813262634270E-01
  -2.215436279348385E-01  -2.127593268456338E-01  -2.037560939925879E-01
  -1.945641964959968E-01  -1.852164315394922E-01  -1.757480223410886E-01
  -1.661964720370061E-01  -1.566013713340741E-01  -1.470041558280635E-01
  -1.374478090065193E-01  -1.279765071687470E-01  -1.186352028161332E-01
  -1.094691435075849E-01  -1.005233237518416E-01  -9.184186823547039E-02
  -8.346734557661345E-02  -7.544001286307025E-02  -6.779699249112678E-02
  -6.057138427811566E-02  -5.379131748408057E-02  -4.747894924936297E-02
  -4.164941803393668E-02  -3.630976292429149E-02  -3.145782214078470E-02
  -2.708112671152345E-02  -2.315580804772922E-02  -1.964554101973775E-02
  -1.650804008546397E-02  -1.372102919050766E-02  -1.126707615516687E-02
  -9.127324442748552E-03  -7.281679007286046E-03  -5.709004076508928E-03
  -4.387332122808618E-03  -3.294083248065294E-03  -2.406294189273184E-03
  -1.700856139596418E-03  -1.154760572632973E-03  -7.453522537647084E-04
  -4.505886190514508E-04  -2.493046959047562E-04  -1.214827265064167E-04
  -4.852563055443571E-05  -1.353340278600901E-05  -1.581477420409261E-06
   0.000000000000000E+00   0.000000000000000E+00   0.000000000000000E+00
   0.000000000000000E+00   0.000000000000000E+00   0.000000000000000E+00
   0.000000000000000E+00   0.000000000000000E+00   0.000000000000000E+00
   0.000000000000000E+00   0.000000000000000E+00   0.000000000000000E+00
   0.000000000000000E+00   0.000000000000000E+00   0.000000000000000E+00
   0.000000000000000E+00   0.000000000000000E+00   0.000000000000000E+00
   0.000000000000000E+00   0.000000000000000E+00   0.000000000000000E+00
   0.000000000000000E+00   0.000000000000000E+00   0.000000000000000E+00
   0.000000000000000E+00   0.000000000000000E+00   0.000000000000000E+00
   0.000000000000000E+00   0.000000000000000E+00   0.000000000000000E+00
   0.000000000000000E+00   0.000000000000000E+00   0.000000000000000E+00
   0.000000000000000E+00   0.000000000000000E+00   0.000000000000000E+00
   0.000000000000000E+00   0.000000000000000E+00   0.000000000000000E+00
   0.000000000000000E+00   0.000000000000000E+00   0.000000000000000E+00
   0.000000000000000E+00   0.000000000000000E+00   0.000000000000000E+00
   0.000000000000000E+00   0.000000000000000E+00   0.000000000000000E+00
   0.000000000000000E+00   0.000000000000000E+00   0.000000000000000E+00
   0.000000000000000E+00   0.000000000000000E+00   0.000000000000000E+00
   0.000000000000000E+00   0.000000000000000E+00   0.000000000000000E+00
   0.000000000000000E+00   0.000000000000000E+00   0.000000000000000E+00
   0.000000000000000E+00   0.000000000000000E+00   0.000000000000000E+00
   0.000000000000000E+00   0.000000000000000E+00   0.000000000000000E+00
   0.000000000000000E+00   0.000000000000000E+00   0.000000000000000E+00
   0.000000000000000E+00   0.000000000000000E+00   0.000000000000000E+00
   0.000000000000000E+00   0.000000000000000E+00   0.000000000000000E+00
   0.000000000000000E+00   0.000000000000000E+00   0.000000000000000E+00
   0.000000000000000E+00   0.000000000000000E+00   0.000000000000000E+00
   0.000000000000000E+00   0.000000000000000E+00   0.000000000000000E+00
   0.000000000000000E+00   0.000000000000000E+00   0.000000000000000E+00
   0.000000000000000E+00   0.000000000000000E+00   0.000000000000000E+00
   0.000000000000000E+00   0.000000000000000E+00   0.000000000000000E+00
   0.000000000000000E+00   0.000000000000000E+00   0.000000000000000E+00
   0.000000000000000E+00   0.000000000000000E+00   0.000000000000000E+00
   0.000000000000000E+00   0.000000000000000E+00   0.000000000000000E+00
   0.000000000000000E+00   0.000000000000000E+00   0.000000000000000E+00
   0.000000000000000E+00   0.000000000000000E+00   0.000000000000000E+00
   0.000000000000000E+00   0.000000000000000E+00   0.000000000000000E+00
   0.000000000000000E+00   0.000000000000000E+00   0.000000000000000E+00
   0.000000000000000E+00   0.000000000000000E+00   0.000000000000000E+00
   0.000000000000000E+00   0.000000000000000E+00   0.000000000000000E+00
   0.000000000000000E+00   0.000000000000000E+00   0.000000000000000E+00
   0.000000000000000E+00   0.000000000000000E+00   0.000000000000000E+00
   0.000000000000000E+00   0.000000000000000E+00   0.000000000000000E+00
   0.000000000000000E+00   0.000000000000000E+00   0.000000000000000E+00
   0.000000000000000E+00   0.000000000000000E+00   0.000000000000000E+00
   0.000000000000000E+00   0.000000000000000E+00   0.000000000000000E+00
   0.000000000000000E+00   0.000000000000000E+00   0.000000000000000E+00
   0.000000000000000E+00   0.000000000000000E+00   0.000000000000000E+00
   0.000000000000000E+00   0.000000000000000E+00   0.000000000000000E+00
   0.000000000000000E+00   0.000000000000000E+00   0.000000000000000E+00
   0.000000000000000E+00   0.000000000000000E+00   0.000000000000000E+00
   0.000000000000000E+00   0.000000000000000E+00   0.000000000000000E+00
   0.000000000000000E+00   0.000000000000000E+00   0.000000000000000E+00
   0.000000000000000E+00   0.000000000000000E+00   0.000000000000000E+00
   0.000000000000000E+00   0.000000000000000E+00   0.000000000000000E+00
   0.000000000000000E+00   0.000000000000000E+00   0.000000000000000E+00
   0.000000000000000E+00   0.000000000000000E+00   0.000000000000000E+00
   0.000000000000000E+00   0.000000000000000E+00   0.000000000000000E+00
   0.000000000000000E+00   0.000000000000000E+00   0.000000000000000E+00
   0.000000000000000E+00   0.000000000000000E+00   0.000000000000000E+00
   0.000000000000000E+00   0.000000000000000E+00   0.000000000000000E+00
   0.000000000000000E+00   0.000000000000000E+00   0.000000000000000E+00
   0.000000000000000E+00   0.000000000000000E+00   0.000000000000000E+00
   0.000000000000000E+00   0.000000000000000E+00   0.000000000000000E+00
   0.000000000000000E+00   0.000000000000000E+00   0.000000000000000E+00
   0.000000000000000E+00   0.000000000000000E+00   0.000000000000000E+00
   0.000000000000000E+00   0.000000000000000E+00   0.000000000000000E+00
   0.000000000000000E+00   0.000000000000000E+00   0.000000000000000E+00
   0.000000000000000E+00   0.000000000000000E+00   0.000000000000000E+00
   0.000000000000000E+00   0.000000000000000E+00   0.000000000000000E+00
   0.000000000000000E+00   0.000000000000000E+00   0.000000000000000E+00
   0.000000000000000E+00   0.000000000000000E+00   0.000000000000000E+00
   0.000000000000000E+00   0.000000000000000E+00   0.000000000000000E+00
   0.000000000000000E+00   0.000000000000000E+00   0.000000000000000E+00
   0.000000000000000E+00   0.000000000000000E+00   0.000000000000000E+00
   0.000000000000000E+00   0.000000000000000E+00   0.000000000000000E+00
   0.000000000000000E+00   0.000000000000000E+00   0.000000000000000E+00
   0.000000000000000E+00   0.000000000000000E+00   0.000000000000000E+00
   0.000000000000000E+00   0.000000000000000E+00   0.000000000000000E+00
   0.000000000000000E+00   0.000000000000000E+00   0.000000000000000E+00
   0.000000000000000E+00   0.000000000000000E+00   0.000000000000000E+00
   0.000000000000000E+00   0.000000000000000E+00   0.000000000000000E+00
   0.000000000000000E+00   0.000000000000000E+00   0.000000000000000E+00
   0.000000000000000E+00   0.000000000000000E+00   0.000000000000000E+00
   0.000000000000000E+00   0.000000000000000E+00   0.000000000000000E+00
   0.000000000000000E+00   0.000000000000000E+00   0.000000000000000E+00
   0.000000000000000E+00   0.000000000000000E+00   0.000000000000000E+00
   0.000000000000000E+00   0.000000000000000E+00   0.000000000000000E+00
   0.000000000000000E+00   0.000000000000000E+00   0.000000000000000E+00
   0.000000000000000E+00   0.000000000000000E+00   0.000000000000000E+00
   0.000000000000000E+00   0.000000000000000E+00   0.000000000000000E+00
   0.000000000000000E+00   0.000000000000000E+00   0.000000000000000E+00
   0.000000000000000E+00   0.000000000000000E+00   0.000000000000000E+00
   0.000000000000000E+00   0.000000000000000E+00   0.000000000000000E+00
   0.000000000000000E+00   0.000000000000000E+00   0.000000000000000E+00
   0.000000000000000E+00   0.000000000000000E+00   0.000000000000000E+00
   0.000000000000000E+00   0.000000000000000E+00   0.000000000000000E+00
   0.000000000000000E+00   0.000000000000000E+00   0.000000000000000E+00
   0.000000000000000E+00   0.000000000000000E+00   0.000000000000000E+00
   0.000000000000000E+00   0.000000000000000E+00   0.000000000000000E+00
   0.000000000000000E+00   0.000000000000000E+00   0.000000000000000E+00
   0.000000000000000E+00   0.000000000000000E+00   0.000000000000000E+00
   0.000000000000000E+00   0.000000000000000E+00   0.000000000000000E+00
   0.000000000000000E+00   0.000000000000000E+00   0.000000000000000E+00
   0.000000000000000E+00   0.000000000000000E+00   0.000000000000000E+00
   0.000000000000000E+00   0.000000000000000E+00
      </PP_QIJL.1.2.0>
      <PP_QIJL.1.3.1 first_index="1" second_index="3" composite_index="4" angular_momentum="1" size="1211">
   1.812903080480729E-14   1.882177727670210E-14   1.954099497473908E-14
   2.028769541733299E-14   2.106292877503735E-14   2.186778534751955E-14
   2.270339709697465E-14   2.357093924013372E-14   2.447163190110593E-14
   2.540674182737946E-14   2.637758417139347E-14   2.738552434018821E-14
   2.843197991573367E-14   2.951842264863764E-14   3.064638052803804E-14
   3.181743993058874E-14   3.303324785156365E-14   3.429551422121507E-14
   3.560601430964481E-14   3.696659122357070E-14   3.837915849849858E-14
   3.984570278994732E-14   4.136828666751037E-14   4.294905151568418E-14
   4.459022054554327E-14   4.629410192149657E-14   4.806309200752463E-14
   4.989967873746095E-14   5.180644511405884E-14   5.378607284176537E-14
   5.584134609830930E-14   5.797515545041022E-14   6.019050191911441E-14
   6.249050120047491E-14   6.487838804751303E-14   6.735752081962223E-14
   6.993138620581472E-14   7.260360412845244E-14   7.537793283435914E-14
   7.825827418047515E-14   8.124867912148530E-14   8.435335340714243E-14
   8.757666349729577E-14   9.092314270294429E-14   9.439749756195347E-14
   9.800461445839794E-14   1.017495664948455E-13   1.056376206272433E-13
   1.096742450724421E-13   1.138651169987785E-13   1.182161305105264E-13
   1.227334049374542E-13   1.274232934411394E-13   1.322923919501493E-13
   1.373475484366533E-13   1.425958725475103E-13   1.480447456033825E-13
   1.537018309799333E-13   1.595750848857117E-13   1.656727675518832E-13
   1.720034548495384E-13   1.785760503509267E-13   1.853997978515705E-13
   1.924842943708766E-13   1.998395036495268E-13   2.074757701626276E-13
   2.154038336683345E-13   2.236348443124061E-13   2.321803783099326E-13
   2.410524542262985E-13   2.502635498802668E-13   2.598266198929702E-13
   2.697551139074790E-13   2.800629955045795E-13   2.907647618413613E-13
   3.018754640402291E-13   3.134107283570260E-13   3.253867781580297E-13
   3.378204567367335E-13   3.507292510025059E-13   3.641313160744324E-13
   3.780455008149469E-13   3.924913743391489E-13   4.074892535370932E-13
   4.230602316477696E-13   4.392262079249375E-13   4.560099184365638E-13
   4.734349680411638E-13   4.915258635860200E-13   5.103080483739777E-13
   5.298079379472753E-13   5.500529572387548E-13   5.710715791426924E-13
   5.928933645594925E-13   6.155490039705820E-13   6.390703606019441E-13
   6.634905152370362E-13   6.888438127420869E-13   7.151659103692224E-13
   7.424938279053557E-13   7.708659997373504E-13   8.003223289067139E-13
   8.309042432298211E-13   8.626547535626007E-13   8.956185142916470E-13
   9.298418861367909E-13   9.653730013535073E-13   1.002261831426823E-12
   1.040560257351945E-12   1.080322142600470E-12   1.121603408874739E-12
   1.164462114756956E-12   1.208958537363623E-12   1.255155257120169E-12
   1.303117245774980E-12   1.352911957776605E-12   1.404609425142695E-12
   1.458282355954059E-12   1.514006236612366E-12   1.571859438005345E-12
   1.631923325728730E-12   1.694282374520040E-12   1.759024287065076E-12
   1.826240117344274E-12   1.896024398692359E-12   1.968475276751394E-12
   2.043694647504259E-12   2.121788300582652E-12   2.202866068051167E-12
   2.287041978876737E-12   2.374434419300610E-12   2.465166299338505E-12
   2.559365225643053E-12   2.657163680971645E-12   2.758699210512152E-12
   2.864114615328436E-12   2.973558153197875E-12   3.087183747123264E-12
   3.205151201812353E-12   3.327626428429556E-12   3.454781677935774E-12
   3.586795783344695E-12   3.723854411236127E-12   3.866150322880188E-12
   4.013883645339557E-12   4.167262152931081E-12   4.326501559442579E-12
   4.491825821515875E-12   4.663467453622627E-12   4.841667855076118E-12
   5.026677649538679E-12   5.218757037502475E-12   5.418176162239239E-12
   5.625215489733672E-12   5.840166203134909E-12   6.063330612280618E-12
   6.295022578869995E-12   6.535567957883377E-12   6.785305055869350E-12
   7.044585106744040E-12   7.313772765771460E-12   7.593246622419971E-12
   7.883399732815958E-12   8.184640172543594E-12   8.497391610568302E-12
   8.822093905090641E-12   9.159203722169519E-12   9.509195177983587E-12
   9.872560505635151E-12   1.024981074743394E-11   1.064147647363408E-11
   1.104810852863596E-11   1.147027880570142E-11   1.190858105127269E-11
   1.236363170002600E-11   1.283607074183364E-11   1.332656262185538E-11
   1.383579717502315E-11   1.436449059623482E-11   1.491338644762099E-11
   1.548325670430094E-11   1.607490284009982E-11   1.668915695475234E-11
   1.732688294417981E-11   1.798897771548556E-11   1.867637244837735E-11
   1.939003390479223E-11   2.013096578856345E-11   2.090021015704392E-11
   2.169884888667044E-11   2.252800519452916E-11   2.338884521806466E-11
   2.428257965515115E-11   2.521046546683511E-11   2.617380764514296E-11
   2.717396104843931E-11   2.821233230691932E-11   2.929038180091216E-11
   3.040962571478030E-11   3.157163816930241E-11   3.277805343553748E-11
   3.403056823328730E-11   3.533094411738535E-11   3.668100995517211E-11
   3.808266449863910E-11   3.953787905485869E-11   4.104870025845832E-11
   4.261725295003415E-11   4.424574316455580E-11   4.593646123396430E-11
   4.769178500832429E-11   4.951418320006586E-11   5.140621885601342E-11
   5.337055296208942E-11   5.540994818576078E-11   5.752727276148952E-11
   5.972550452465768E-11   6.200773509963251E-11   6.437717424786818E-11
   6.683715438215697E-11   6.939113525337629E-11   7.204270881632960E-11
   7.479560428151634E-11   7.765369335994226E-11   8.062099570834463E-11
   8.370168458248646E-11   8.690009270647964E-11   9.022071836638105E-11
   9.366823173663951E-11   9.724748144828910E-11   1.009635014081221E-10
   1.048215178784417E-10   1.088269568273395E-10   1.129854515598450E-10
   1.173028506406768E-10   1.217852261197316E-10   1.264388820718939E-10
   1.312703634631601E-10   1.362864653555579E-10   1.414942424638051E-10
   1.469010190771401E-10   1.525143993602938E-10   1.583422780480729E-10
   1.643928515486079E-10   1.706746294708775E-10   1.771964465927193E-10
   1.839674752861637E-10   1.909972384175607E-10   1.982956227406472E-10
   2.058728928013879E-10   2.137397053741458E-10   2.219071244494879E-10
   2.303866367947002E-10   2.391901681089030E-10   2.483300997954808E-10
   2.578192863754181E-10   2.676710735660351E-10   2.778993170505391E-10
   2.885184019648022E-10   2.995432631287620E-10   3.109894060509009E-10
   3.228729287353477E-10   3.352105443222671E-10   3.480196045933816E-10
   3.613181243756837E-10   3.751248068776554E-10   3.894590699936357E-10
   4.043410736133225E-10   4.197917479748220E-10   4.358328231011226E-10
   4.524868593613830E-10   4.697772792000332E-10   4.877284000782898E-10
   5.063654686744359E-10   5.257146963909526E-10   5.458032962184372E-10
   5.666595210081672E-10   5.883127032071174E-10   6.107932961113277E-10
   6.341329166956410E-10   6.583643900800263E-10   6.835217956950569E-10
   7.096405152114369E-10   7.367572823010083E-10   7.649102342992141E-10
   7.941389658416626E-10   8.244845845502564E-10   8.559897688471664E-10
   8.886988279779866E-10   9.226577643284824E-10   9.579143381225506E-10
   9.945181345924188E-10   1.032520633715517E-09   1.071975282616116E-09
   1.112937570733568E-09   1.155465107862822E-09   1.199617705177030E-09
   1.245457459346134E-09   1.293048839869779E-09   1.342458779747356E-09
   1.393756769612687E-09   1.447014955465764E-09   1.502308240138955E-09
   1.559714388640411E-09   1.619314137522814E-09   1.681191308431258E-09
   1.745432925990002E-09   1.812129340193821E-09   1.881374353476158E-09
   1.953265352632727E-09   2.027903445786108E-09   2.105393604583990E-09
   2.185844811831000E-09   2.269370214761766E-09   2.356087284170799E-09
   2.446117979622907E-09   2.539588920976591E-09   2.636631566461549E-09
   2.737382397560810E-09   2.841983110957466E-09   2.950580817815925E-09
   3.063328250678026E-09   3.180383978264877E-09   3.301912628486613E-09
   3.428085119973593E-09   3.559078902454808E-09   3.695078206321305E-09
   3.836274301725884E-09   3.982865767583254E-09   4.135058770849016E-09
   4.293067356470294E-09   4.457113748415605E-09   4.627428662207566E-09
   4.804251629397751E-09   4.987831334440121E-09   5.178425964436826E-09
   5.376303572248011E-09   5.581742453476625E-09   5.795031537858075E-09
   6.016470795605327E-09   6.246371659280935E-09   6.485057461788990E-09
   6.732863891103389E-09   6.990139462371547E-09   7.257246008057645E-09
   7.534559186814752E-09   7.822469011801165E-09   8.121380399184366E-09
   8.431713737603611E-09   8.753905479392102E-09   9.088408754390313E-09
   9.435694007213274E-09   9.796249658868509E-09   1.017058279365466E-08
   1.055921987230688E-08   1.096270747239205E-08   1.138161305699463E-08
   1.181652577277450E-08   1.226805727851893E-08   1.273684260535375E-08
   1.322354104982366E-08   1.372883710109705E-08   1.425344140359994E-08
   1.479809175643215E-08   1.536355415097134E-08   1.595062384812418E-08
   1.656012649673906E-08   1.719291929475364E-08   1.784989219470974E-08
   1.853196915533074E-08   1.924010944092196E-08   1.997530897042018E-08
   2.073860171799083E-08   2.153106116714098E-08   2.235380182039369E-08
   2.320798076664669E-08   2.409479930841825E-08   2.501550465127019E-08
   2.597139165778214E-08   2.696380466854402E-08   2.799413939272779E-08
   2.906384487089560E-08   3.017442551280576E-08   3.132744321308118E-08
   3.252451954771522E-08   3.376733805450356E-08   3.505764660060925E-08
   3.639725984058828E-08   3.778806176833428E-08   3.923200836652846E-08
   4.073113035732145E-08   4.228753605811451E-08   4.390341434645437E-08
   4.558103773821247E-08   4.732276558337495E-08   4.913104738393764E-08
   5.100842623857130E-08   5.295754241889906E-08   5.498113708241594E-08
   5.708205612727009E-08   5.926325419432512E-08   6.152779882213142E-08
   6.387887476064648E-08   6.631978844977109E-08   6.885397266899649E-08
   7.148499136470010E-08   7.421654466187752E-08   7.705247406735366E-08
   7.999676787179265E-08   8.305356675809777E-08   8.622716962408646E-08
   8.952203962762887E-08   9.294281046274359E-08   9.649429287547837E-08
   1.001814814287335E-07   1.040095615255377E-07   1.079839167006515E-07
   1.121101361907447E-07   1.163940227937940E-07   1.208416010287459E-07
   1.254591256069164E-07   1.302530902270354E-07   1.352302367062967E-07
   1.403975644602532E-07   1.457623403448782E-07   1.513321088746281E-07
   1.571147028308728E-07   1.631182542755955E-07   1.693512059858534E-07
   1.758223233250627E-07   1.825407065677963E-07   1.895158036954173E-07
   1.967574236805272E-07   2.042757502789065E-07   2.120813563483252E-07
   2.201852187143488E-07   2.285987336040341E-07   2.373337326691961E-07
   2.464024996217742E-07   2.558177875046685E-07   2.655928366223160E-07
   2.757413931562077E-07   2.862777284914964E-07   2.972166592818630E-07
   3.085735682808259E-07   3.203644259687672E-07   3.326058130060660E-07
   3.453149435438761E-07   3.585096894253120E-07   3.722086053110353E-07
   3.864309547645485E-07   4.011967373338241E-07   4.165267166673557E-07
   4.324424497040787E-07   4.489663169782100E-07   4.661215540814603E-07
   4.839322843271565E-07   5.024235526615569E-07   5.216213608706169E-07
   5.415527041312660E-07   5.622456089586385E-07   5.837291726026148E-07
   6.060336039488608E-07   6.291902659819453E-07   6.532317198700825E-07
   6.781917707335554E-07   7.041055151606324E-07   7.310093905384532E-07
   7.589412262673529E-07   7.879402969311788E-07   8.180473774977334E-07
   8.493048006272481E-07   8.817565161689932E-07   9.154481529299538E-07
   9.504270828016887E-07   9.867424873360502E-07   1.024445426862764E-06
   1.063588912245813E-06   1.104227979379746E-06   1.146419766530178E-06
   1.190223594626952E-06   1.235701050622755E-06   1.282916074033972E-06
   1.331935046785737E-06   1.382826886486130E-06   1.435663143262287E-06
   1.490518100290753E-06   1.547468878168679E-06   1.606595543265666E-06
   1.667981220212942E-06   1.731712208687028E-06   1.797878104649004E-06
   1.866571926211806E-06   1.937890244312317E-06   2.011933318368929E-06
   2.088805237117145E-06   2.168614064819888E-06   2.251471993057128E-06
   2.337495498307113E-06   2.426805505541319E-06   2.519527558062204E-06
   2.615791993820143E-06   2.715734128457757E-06   2.819494445338687E-06
   2.927218792824454E-06   3.039058589079903E-06   3.155171034689609E-06
   3.275719333384059E-06   3.400872921189401E-06   3.530807704312051E-06
   3.665706306101439E-06   3.805758323427486E-06   3.951160592841247E-06
   4.102117466878456E-06   4.258841100906641E-06   4.421551750905484E-06
   4.590478082603527E-06   4.765857492401223E-06   4.947936440529123E-06
   5.136970796906421E-06   5.333226200186342E-06   5.536978430484997E-06
   5.748513796318440E-06   5.968129536290325E-06   6.196134236080478E-06
   6.432848261334742E-06   6.678604207042820E-06   6.933747364041377E-06
   7.198636203295887E-06   7.473642878619975E-06   7.759153748563527E-06
   8.055569918163698E-06   8.363307801344099E-06   8.682799704724695E-06
   9.014494433664193E-06   9.358857921392355E-06   9.716373882080198E-06
   1.008754448878717E-05   1.047289107720931E-05   1.087295487622186E-05
   1.128829776621969E-05   1.171950306633024E-05   1.216717635156810E-05
   1.263194630109322E-05   1.311446557874195E-05   1.361541174704423E-05
   1.413548821601853E-05   1.467542522804658E-05   1.523598088019771E-05
   1.581794218543819E-05   1.642212617416719E-05   1.704938103764279E-05
   1.770058731485722E-05   1.837665912452315E-05   1.907854544386821E-05
   1.980723143602022E-05   2.056373982780526E-05   2.134913233989023E-05
   2.216451117122270E-05   2.301102053983511E-05   2.388984828215052E-05
   2.480222751298661E-05   2.574943834854998E-05   2.673280969482299E-05
   2.775372110377723E-05   2.881360470000526E-05   2.991394718040296E-05
   3.105629188968046E-05   3.224224097453467E-05   3.347345761947956E-05
   3.475166836738069E-05   3.607866552789658E-05   3.745630967715668E-05
   3.888653225206568E-05   4.037133824283591E-05   4.191280898742116E-05
   4.351310507168513E-05   4.517446933927394E-05   4.689923001533116E-05
   4.868980394829689E-05   5.054869997425567E-05   5.247852240840222E-05
   5.448197466841069E-05   5.656186303463578E-05   5.872110055226802E-05
   6.096271108077307E-05   6.328983349611255E-05   6.570572605144100E-05
   6.821377090225060E-05   7.081747880203307E-05   7.352049397490204E-05
   7.632659917169860E-05   7.923972091647617E-05   8.226393495042168E-05
   8.540347188058597E-05   8.866272304101325E-05   9.204624657419222E-05
   9.555877374098890E-05   9.920521546755373E-05   1.029906691379864E-04
   1.069204256418571E-04   1.109999766860277E-04   1.152350223805555E-04
   1.196314791087781E-04   1.241954876921110E-04   1.289334218603923E-04
   1.338518970390729E-04   1.389577794648746E-04   1.442581956420310E-04
   1.497605421516004E-04   1.554724958268133E-04   1.614020243078852E-04
   1.675573969901717E-04   1.739471963800674E-04   1.805803298734967E-04
   1.874660419725006E-04   1.946139269557847E-04   2.020339420198014E-04
   2.097364209074633E-04   2.177320880421293E-04   2.260320731852485E-04
   2.346479266365293E-04   2.435916349962727E-04   2.528756375101209E-04
   2.625128430171917E-04   2.725166475233145E-04   2.829009524217188E-04
   2.936801833844251E-04   3.048693099482963E-04   3.164838658205107E-04
   3.285399699290707E-04   3.410543482448242E-04   3.540443564023502E-04
   3.675280031479368E-04   3.815239746438960E-04   3.960516596592563E-04
   4.111311756781126E-04   4.267833959576138E-04   4.430299775688808E-04
   4.598933904550689E-04   4.773969475418613E-04   4.955648359369416E-04
   5.144221492559679E-04   5.339949211138892E-04   5.543101598215406E-04
   5.753958843287792E-04   5.972811614566436E-04   6.199961444622187E-04
   6.435721129814244E-04   6.680415143960221E-04   6.934380066727119E-04
   7.197965027234746E-04   7.471532163377279E-04   7.755457097384614E-04
   8.050129428157051E-04   8.355953240924208E-04   8.673347634793564E-04
   9.002747268767919E-04   9.344602926828942E-04   9.699382102696804E-04
   1.006756960489378E-03   1.044966818275527E-03   1.084619917404531E-03
   1.125770317485366E-03   1.168474073246305E-03   1.212789306189426E-03
   1.258776278685173E-03   1.306497470580657E-03   1.356017658397208E-03
   1.407403997193926E-03   1.460726105175725E-03   1.516056151125697E-03
   1.573468944742963E-03   1.633042029968833E-03   1.694855781385004E-03
   1.758993503769040E-03   1.825541534893540E-03   1.894589351656097E-03
   1.966229679628732E-03   2.040558606115557E-03   2.117675696808730E-03
   2.197684116133094E-03   2.280690751370071E-03   2.366806340651954E-03
   2.456145604917416E-03   2.548827383918830E-03   2.644974776371921E-03
   2.744715284336638E-03   2.848180961918125E-03   2.955508568374325E-03
   3.066839725715494E-03   3.182321080878747E-03   3.302104472557708E-03
   3.426347102764961E-03   3.555211713200539E-03   3.688866766496369E-03
   3.827486632401370E-03   3.971251778966390E-03   4.120348968782472E-03
   4.274971460318620E-03   4.435319214397499E-03   4.601599105839429E-03
   4.774025140294374E-03   4.952818676272100E-03   5.138208652367861E-03
   5.330431819668461E-03   5.529732979309411E-03   5.736365225137119E-03
   5.950590191414211E-03   6.172678305485575E-03   6.402909045303231E-03
   6.641571201685212E-03   6.888963145158303E-03   7.145393097209154E-03
   7.411179405737615E-03   7.686650824475608E-03   7.972146796100641E-03
   8.268017738734869E-03   8.574625335482170E-03   8.892342826610907E-03
   9.221555303943873E-03   9.562660006967103E-03   9.916066620112976E-03
   1.028219757061707E-02   1.066148832628285E-02   1.105438769242175E-02
   1.146135810716429E-02   1.188287593425745E-02   1.231943175238293E-02
   1.277153063993893E-02   1.323969245413291E-02   1.372445210313198E-02
   1.422635980990410E-02   1.474598136627110E-02   1.528389837556535E-02
   1.584070848215139E-02   1.641702558593216E-02   1.701348003980609E-02
   1.763071882788501E-02   1.826940572210829E-02   1.893022141471045E-02
   1.961386362380800E-02   2.032104716916526E-02   2.105250401498870E-02
   2.180898327636718E-02   2.259125118573954E-02   2.340009101551723E-02
   2.423630295272073E-02   2.510070392121334E-02   2.599412734681597E-02
   2.691742286028135E-02   2.787145593278349E-02   2.885710743823425E-02
   2.987527313639409E-02   3.092686307036813E-02   3.201280087170078E-02
   3.313402296588503E-02   3.429147767068632E-02   3.548612417926432E-02
   3.671893141962990E-02   3.799087678153118E-02   3.930294470140255E-02
   4.065612509553638E-02   4.205141163116999E-02   4.348979982469049E-02
   4.497228495568176E-02   4.649985978505646E-02   4.807351206502716E-02
   4.969422182821340E-02   5.136295844270691E-02   5.308067741949000E-02
   5.484831695817176E-02   5.666679421662488E-02   5.853700128975799E-02
   6.045980088234067E-02   6.243602166056722E-02   6.446645326684240E-02
   6.655184098217770E-02   6.869288002056805E-02   7.089020943979660E-02
   7.314440565333742E-02   7.545597552835288E-02   7.782534905528961E-02
   8.025287157525374E-02   8.273879555220126E-02   8.528327187809188E-02
   8.788634070047302E-02   9.054792176358469E-02   9.326780425599203E-02
   9.604563615998926E-02   9.888091310065877E-02   1.017729666954688E-01
   1.047209524087704E-01   1.077238369194945E-01   1.107803850147981E-01
   1.138891460274513E-01   1.170484398403605E-01   1.202563424879071E-01
   1.235106713907470E-01   1.268089702683902E-01   1.301484937823774E-01
   1.335261919721276E-01   1.369386945556851E-01   1.403822951786162E-01
   1.438529357062239E-01   1.473461906671543E-01   1.508572519702584E-01
   1.543809140313727E-01   1.579115594624041E-01   1.614431454917351E-01
   1.649691913025218E-01   1.684827664937902E-01   1.719764808883477E-01
   1.754424759312642E-01   1.788724179428827E-01   1.822574935109044E-01
   1.855884073267228E-01   1.888553827917263E-01   1.920481657393645E-01
   1.951560316380461E-01   1.981677966580401E-01   2.010718330019320E-01
   2.038560889123975E-01   2.065081137824193E-01   2.090150888009216E-01
   2.113638635704157E-01   2.135409991317015E-01   2.155328178231286E-01
   2.173254603873129E-01   2.189049507154429E-01   2.202572685872788E-01
   2.213684307223257E-01   2.222245804032291E-01   2.228120858647826E-01
   2.231176475597052E-01   2.231284143141323E-01   2.228321082701919E-01
   2.222171583787747E-01   2.212728420514161E-01   2.199894344049843E-01
   2.183583643356902E-01   2.163723764391543E-01   2.140256975505443E-01
   2.113142064131997E-01   2.082356046963035E-01   2.047895872731549E-01
   2.009780093434173E-01   1.968050476379919E-01   1.922773525876199E-01
   1.874041879706975E-01   1.821975541879892E-01   1.766722909493429E-01
   1.708461548088142E-01   1.647398666601745E-01   1.583771240166593E-01
   1.517845726606358E-01   1.449917320763410E-01   1.380308689890997E-01
   1.309368133465935E-01   1.237467112124401E-01   1.164997093213938E-01
   1.092365664921416E-01   1.019991877314434E-01   9.483007771615679E-02
   8.777171143074898E-02   8.086582108887416E-02   7.415260009810259E-02
   6.766982675249844E-02   6.145191256940565E-02   5.552888272888229E-02
   4.992529892274668E-02   4.465913806152680E-02   3.974064369572960E-02
   3.517117064312876E-02   3.094204712043142E-02   2.703348258199778E-02
   2.342056534017944E-02   2.009737484936802E-02   1.706245036612719E-02
   1.431271412784330E-02   1.184344995040487E-02   9.648281751528986E-03
   7.719151835107740E-03   6.046298883213619E-03   4.618235738663046E-03
   3.421727224012572E-03   2.441768434431446E-03   1.661564163538576E-03
   1.062510374548076E-03   6.241789152633404E-04   3.243069954569355E-04
   1.387932998435648E-04   4.170299925632115E-05   5.284346446754462E-06
   0.000000000000000E+00   0.000000000000000E+00   0.000000000000000E+00
   0.000000000000000E+00   0.000000000000000E+00   0.000000000000000E+00
   0.000000000000000E+00   0.000000000000000E+00   0.000000000000000E+00
   0.000000000000000E+00   0.000000000000000E+00   0.000000000000000E+00
   0.000000000000000E+00   0.000000000000000E+00   0.000000000000000E+00
   0.000000000000000E+00   0.000000000000000E+00   0.000000000000000E+00
   0.000000000000000E+00   0.000000000000000E+00   0.000000000000000E+00
   0.000000000000000E+00   0.000000000000000E+00   0.000000000000000E+00
   0.000000000000000E+00   0.000000000000000E+00   0.000000000000000E+00
   0.000000000000000E+00   0.000000000000000E+00   0.000000000000000E+00
   0.000000000000000E+00   0.000000000000000E+00   0.000000000000000E+00
   0.000000000000000E+00   0.000000000000000E+00   0.000000000000000E+00
   0.000000000000000E+00   0.000000000000000E+00   0.000000000000000E+00
   0.000000000000000E+00   0.000000000000000E+00   0.000000000000000E+00
   0.000000000000000E+00   0.000000000000000E+00   0.000000000000000E+00
   0.000000000000000E+00   0.000000000000000E+00   0.000000000000000E+00
   0.000000000000000E+00   0.000000000000000E+00   0.000000000000000E+00
   0.000000000000000E+00   0.000000000000000E+00   0.000000000000000E+00
   0.000000000000000E+00   0.000000000000000E+00   0.000000000000000E+00
   0.000000000000000E+00   0.000000000000000E+00   0.000000000000000E+00
   0.000000000000000E+00   0.000000000000000E+00   0.000000000000000E+00
   0.000000000000000E+00   0.000000000000000E+00   0.000000000000000E+00
   0.000000000000000E+00   0.000000000000000E+00   0.000000000000000E+00
   0.000000000000000E+00   0.000000000000000E+00   0.000000000000000E+00
   0.000000000000000E+00   0.000000000000000E+00   0.000000000000000E+00
   0.000000000000000E+00   0.000000000000000E+00   0.000000000000000E+00
   0.000000000000000E+00   0.000000000000000E+00   0.000000000000000E+00
   0.000000000000000E+00   0.000000000000000E+00   0.000000000000000E+00
   0.000000000000000E+00   0.000000000000000E+00   0.000000000000000E+00
   0.000000000000000E+00   0.000000000000000E+00   0.000000000000000E+00
   0.000000000000000E+00   0.000000000000000E+00   0.000000000000000E+00
   0.000000000000000E+00   0.000000000000000E+00   0.000000000000000E+00
   0.000000000000000E+00   0.000000000000000E+00   0.000000000000000E+00
   0.000000000000000E+00   0.000000000000000E+00   0.000000000000000E+00
   0.000000000000000E+00   0.000000000000000E+00   0.000000000000000E+00
   0.000000000000000E+00   0.000000000000000E+00   0.000000000000000E+00
   0.000000000000000E+00   0.000000000000000E+00   0.000000000000000E+00
   0.000000000000000E+00   0.000000000000000E+00   0.000000000000000E+00
   0.000000000000000E+00   0.000000000000000E+00   0.000000000000000E+00
   0.000000000000000E+00   0.000000000000000E+00   0.000000000000000E+00
   0.000000000000000E+00   0.000000000000000E+00   0.000000000000000E+00
   0.000000000000000E+00   0.000000000000000E+00   0.000000000000000E+00
   0.000000000000000E+00   0.000000000000000E+00   0.000000000000000E+00
   0.000000000000000E+00   0.000000000000000E+00   0.000000000000000E+00
   0.000000000000000E+00   0.000000000000000E+00   0.000000000000000E+00
   0.000000000000000E+00   0.000000000000000E+00   0.000000000000000E+00
   0.000000000000000E+00   0.000000000000000E+00   0.000000000000000E+00
   0.000000000000000E+00   0.000000000000000E+00   0.000000000000000E+00
   0.000000000000000E+00   0.000000000000000E+00   0.000000000000000E+00
   0.000000000000000E+00   0.000000000000000E+00   0.000000000000000E+00
   0.000000000000000E+00   0.000000000000000E+00   0.000000000000000E+00
   0.000000000000000E+00   0.000000000000000E+00   0.000000000000000E+00
   0.000000000000000E+00   0.000000000000000E+00   0.000000000000000E+00
   0.000000000000000E+00   0.000000000000000E+00   0.000000000000000E+00
   0.000000000000000E+00   0.000000000000000E+00   0.000000000000000E+00
   0.000000000000000E+00   0.000000000000000E+00   0.000000000000000E+00
   0.000000000000000E+00   0.000000000000000E+00   0.000000000000000E+00
   0.000000000000000E+00   0.000000000000000E+00   0.000000000000000E+00
   0.000000000000000E+00   0.000000000000000E+00   0.000000000000000E+00
   0.000000000000000E+00   0.000000000000000E+00   0.000000000000000E+00
   0.000000000000000E+00   0.000000000000000E+00   0.000000000000000E+00
   0.000000000000000E+00   0.000000000000000E+00   0.000000000000000E+00
   0.000000000000000E+00   0.000000000000000E+00   0.000000000000000E+00
   0.000000000000000E+00   0.000000000000000E+00   0.000000000000000E+00
   0.000000000000000E+00   0.000000000000000E+00   0.000000000000000E+00
   0.000000000000000E+00   0.000000000000000E+00   0.000000000000000E+00
   0.000000000000000E+00   0.000000000000000E+00   0.000000000000000E+00
   0.000000000000000E+00   0.000000000000000E+00   0.000000000000000E+00
   0.000000000000000E+00   0.000000000000000E+00   0.000000000000000E+00
   0.000000000000000E+00   0.000000000000000E+00   0.000000000000000E+00
   0.000000000000000E+00   0.000000000000000E+00   0.000000000000000E+00
   0.000000000000000E+00   0.000000000000000E+00   0.000000000000000E+00
   0.000000000000000E+00   0.000000000000000E+00   0.000000000000000E+00
   0.000000000000000E+00   0.000000000000000E+00   0.000000000000000E+00
   0.000000000000000E+00   0.000000000000000E+00   0.000000000000000E+00
   0.000000000000000E+00   0.000000000000000E+00   0.000000000000000E+00
   0.000000000000000E+00   0.000000000000000E+00   0.000000000000000E+00
   0.000000000000000E+00   0.000000000000000E+00   0.000000000000000E+00
   0.000000000000000E+00   0.000000000000000E+00   0.000000000000000E+00
   0.000000000000000E+00   0.000000000000000E+00   0.000000000000000E+00
   0.000000000000000E+00   0.000000000000000E+00   0.000000000000000E+00
   0.000000000000000E+00   0.000000000000000E+00   0.000000000000000E+00
   0.000000000000000E+00   0.000000000000000E+00   0.000000000000000E+00
   0.000000000000000E+00   0.000000000000000E+00   0.000000000000000E+00
   0.000000000000000E+00   0.000000000000000E+00   0.000000000000000E+00
   0.000000000000000E+00   0.000000000000000E+00   0.000000000000000E+00
   0.000000000000000E+00   0.000000000000000E+00   0.000000000000000E+00
   0.000000000000000E+00   0.000000000000000E+00   0.000000000000000E+00
   0.000000000000000E+00   0.000000000000000E+00   0.000000000000000E+00
   0.000000000000000E+00   0.000000000000000E+00   0.000000000000000E+00
   0.000000000000000E+00   0.000000000000000E+00   0.000000000000000E+00
   0.000000000000000E+00   0.000000000000000E+00   0.000000000000000E+00
   0.000000000000000E+00   0.000000000000000E+00   0.000000000000000E+00
   0.000000000000000E+00   0.000000000000000E+00   0.000000000000000E+00
   0.000000000000000E+00   0.000000000000000E+00   0.000000000000000E+00
   0.000000000000000E+00   0.000000000000000E+00   0.000000000000000E+00
   0.000000000000000E+00   0.000000000000000E+00   0.000000000000000E+00
   0.000000000000000E+00   0.000000000000000E+00   0.000000000000000E+00
   0.000000000000000E+00   0.000000000000000E+00   0.000000000000000E+00
   0.000000000000000E+00   0.000000000000000E+00   0.000000000000000E+00
   0.000000000000000E+00   0.000000000000000E+00   0.000000000000000E+00
   0.000000000000000E+00   0.000000000000000E+00   0.000000000000000E+00
   0.000000000000000E+00   0.000000000000000E+00   0.000000000000000E+00
   0.000000000000000E+00   0.000000000000000E+00   0.000000000000000E+00
   0.000000000000000E+00   0.000000000000000E+00   0.000000000000000E+00
   0.000000000000000E+00   0.000000000000000E+00
      </PP_QIJL.1.3.1>
      <PP_QIJL.1.4.1 first_index="1" second_index="4" composite_index="7" angular_momentum="1" size="1211">
   1.836229880820017E-14   1.906395891625780E-14   1.979243085829006E-14
   2.054873916801677E-14   2.133394752863731E-14   2.214916026881007E-14
   2.299552391579685E-14   2.387422880795571E-14   2.478651076885032E-14
   2.573365284533085E-14   2.671698711202962E-14   2.773789654481075E-14
   2.879781696580786E-14   2.989823906278551E-14   3.104071048566485E-14
   3.222683802316070E-14   3.345828986259351E-14   3.473679793605249E-14
   3.606416035621035E-14   3.744224394521612E-14   3.887298686022066E-14
   4.035840131923001E-14   4.190057643111847E-14   4.350168113378208E-14
   4.516396724456534E-14   4.688977262724975E-14   4.868152448006061E-14
   5.054174274931419E-14   5.247304367350732E-14   5.447814346283460E-14
   5.655986211930572E-14   5.872112740283833E-14   6.096497894890301E-14
   6.329457254351119E-14   6.571318456155979E-14   6.822421657477267E-14
   7.083120013572164E-14   7.353780174465429E-14   7.634782800611383E-14
   7.926523098260475E-14   8.229411375283074E-14   8.543873618232610E-14
   8.870352091459314E-14   9.209305959117340E-14   9.561211930940098E-14
   9.926564932691710E-14   1.030587880223802E-13   1.069968701221576E-13
   1.110854342031627E-13   1.153302304823931E-13   1.197372289041181E-13
   1.243126275360989E-13   1.290628612866410E-13   1.339946109547451E-13
   1.391148126260818E-13   1.444306674280038E-13   1.499496516573185E-13
   1.556795272950619E-13   1.616283529230630E-13   1.678044950576541E-13
   1.742166399164601E-13   1.808738056348251E-13   1.877853549490499E-13
   1.949610083642831E-13   2.024108578255844E-13   2.101453809113817E-13
   2.181754555692948E-13   2.265123754150401E-13   2.351678656159381E-13
   2.441540993813643E-13   2.534837150833263E-13   2.631698340312598E-13
   2.732260789260298E-13   2.836665930190982E-13   2.945060600038039E-13
   3.057597246667210E-13   3.174434143281545E-13   3.295735611019160E-13
   3.421672250056897E-13   3.552421179544963E-13   3.688166286709858E-13
   3.829098485476120E-13   3.975415984970468E-13   4.127324568286023E-13
   4.285037881898724E-13   4.448777736142819E-13   4.618774417168224E-13
   4.795267010818346E-13   4.978503738883911E-13   5.168742308205800E-13
   5.366250273117676E-13   5.571305411738360E-13   5.784196116643071E-13
   6.005221800462967E-13   6.234693316983529E-13   6.472933398333800E-13
   6.720277108881672E-13   6.977072316473298E-13   7.243680181679538E-13
   7.520475665737574E-13   7.807848057901772E-13   8.106201522945895E-13
   8.415955669586347E-13   8.737546140625999E-13   9.071425225648750E-13
   9.418062497126055E-13   9.777945470830645E-13   1.015158029148585E-12
   1.053949244461489E-12   1.094222749559160E-12   1.136035185693133E-12
   1.179445358490194E-12   1.224514320657475E-12   1.271305457847867E-12
   1.319884577806550E-12   1.370320002923941E-12   1.422682666325324E-12
   1.477046211632228E-12   1.533487096535890E-12   1.592084700328484E-12
   1.652921435543297E-12   1.716082863860936E-12   1.781657816444512E-12
   1.849738518873096E-12   1.920420720849123E-12   1.993803830862150E-12
   2.069991055998425E-12   2.149089547092825E-12   2.231210549427358E-12
   2.316469559188159E-12   2.404986485900982E-12   2.496885821073722E-12
   2.592296813283073E-12   2.691353649951607E-12   2.794195646070936E-12
   2.900967440136304E-12   3.011819197568291E-12   3.126906821907637E-12
   3.246392174080224E-12   3.370443300040681E-12   3.499234667114581E-12
   3.632947409371861E-12   3.771769582376385E-12   3.915896427670007E-12
   4.065530647363121E-12   4.220882689217803E-12   4.382171042624600E-12
   4.549622545889170E-12   4.723472705260917E-12   4.903966026152437E-12
   5.091356357015379E-12   5.285907246356599E-12   5.487892313396561E-12
   5.697595632891338E-12   5.915312134659474E-12   6.141348018375429E-12
   6.376021184213253E-12   6.619661679945932E-12   6.872612165129269E-12
   7.135228393023272E-12   7.407879710928512E-12   7.690949579641499E-12
   7.984836112759414E-12   8.289952636592711E-12   8.606728271473240E-12
   8.935608535274930E-12   9.277055969996805E-12   9.631550792288305E-12
   9.999591568832925E-12   1.038169591753956E-11   1.077840123552736E-11
   1.119026545492900E-11   1.161786782757397E-11   1.206180973965670E-11
   1.252271555753464E-11   1.300123350584551E-11   1.349803657918006E-11
   1.401382348859065E-11   1.454931964426844E-11   1.510527817577056E-11
   1.568248099123160E-11   1.628173987705067E-11   1.690389763959861E-11
   1.754982929055284E-11   1.822044327752595E-11   1.891668276171857E-11
   1.963952694439502E-11   2.038999244404488E-11   2.116913472616943E-11
   2.197804958770310E-11   2.281787469815664E-11   2.368979119965195E-11
   2.459502536809581E-11   2.553485033783124E-11   2.651058789219133E-11
   2.752361032247241E-11   2.857534235794415E-11   2.966726316960722E-11
   3.080090845051957E-11   3.197787257561628E-11   3.319981084405871E-11
   3.446844180727080E-11   3.578554968593151E-11   3.715298687932707E-11
   3.857267657059018E-11   4.004661543148914E-11   4.157687643057475E-11
   4.316561174862937E-11   4.481505580552264E-11   4.652752840272917E-11
   4.830543798592625E-11   5.015128503226465E-11   5.206766556707086E-11
   5.405727481493081E-11   5.612291099028899E-11   5.826747923289134E-11
   6.049399569361276E-11   6.280559177640840E-11   6.520551854236024E-11
   6.769715128201072E-11   7.028399426241194E-11   7.296968565557275E-11
   7.575800265522711E-11   7.865286678912629E-11   8.165834943432473E-11
   8.477867754321206E-11   8.801823958835292E-11   9.138159173448589E-11
   9.487346424636822E-11   9.849876814147846E-11   1.022626020969264E-10
   1.061702596202961E-10   1.102272364944946E-10   1.144392385070848E-10
   1.188121894749736E-10   1.233522395757311E-10   1.280657739972755E-10
   1.329594219180698E-10   1.380400658304736E-10   1.433148512203584E-10
   1.487911966165938E-10   1.544768040245523E-10   1.603796697582891E-10
   1.665080956866451E-10   1.728707009090846E-10   1.794764338776851E-10
   1.863345849823355E-10   1.934547996168342E-10   2.008470917442700E-10
   2.085218579807603E-10   2.164898922173552E-10   2.247624008006724E-10
   2.333510182936098E-10   2.422678238383080E-10   2.515253581443686E-10
   2.611366411262242E-10   2.711151902144671E-10   2.814750393668822E-10
   2.922307588059317E-10   3.033974755104434E-10   3.149908944903205E-10
   3.270273208742022E-10   3.395236828411285E-10   3.524975554284683E-10
   3.659671852495923E-10   3.799515161560482E-10   3.944702158803388E-10
   4.095437036967638E-10   4.251931791392335E-10   4.414406518164442E-10
   4.583089723663349E-10   4.758218645933825E-10   4.940039588339041E-10
   5.128808265963171E-10   5.324790165250610E-10   5.528260917387589E-10
   5.739506685951433E-10   5.958824569372475E-10   6.186523018774767E-10
   6.422922271783269E-10   6.668354802907395E-10   6.923165791134655E-10
   7.187713605391683E-10   7.462370308555647E-10   7.747522180724786E-10
   8.043570262483845E-10   8.350930918928817E-10   8.670036425243761E-10
   9.001335574653596E-10   9.345294309607811E-10   9.702396377082545E-10
   1.007314400892304E-09   1.045805862818288E-09   1.085768158245364E-09
   1.127257490521634E-09   1.170332210628508E-09   1.215052899245504E-09
   1.261482451950844E-09   1.309686167677721E-09   1.359731840550597E-09
   1.411689855230710E-09   1.465633285904884E-09   1.521637999056829E-09
   1.579782760165506E-09   1.640149344480588E-09   1.702822652030789E-09
   1.767890827026864E-09   1.835445381827133E-09   1.905581325639924E-09
   1.978397298143908E-09   2.053995708214242E-09   2.132482877949652E-09
   2.213969192202950E-09   2.298569253825331E-09   2.386402044842773E-09
   2.477591093791149E-09   2.572264649445486E-09   2.670555861187581E-09
   2.772602966265721E-09   2.878549484209832E-09   2.988544418675426E-09
   3.102742467000290E-09   3.221304237768528E-09   3.344396476688024E-09
   3.472192301098883E-09   3.604871443442775E-09   3.742620504035383E-09
   3.885633213497661E-09   4.034110705214814E-09   4.188261798206191E-09
   4.348303290803973E-09   4.514460265553500E-09   4.686966405764220E-09
   4.866064324156280E-09   5.052005904064989E-09   5.245052653683057E-09
   5.445476073838557E-09   5.653558039826159E-09   5.869591197828271E-09
   6.093879376483794E-09   6.326738014183242E-09   6.568494602690898E-09
   6.819489147718275E-09   7.080074647096198E-09   7.350617587218152E-09
   7.631498458453069E-09   7.923112290252062E-09   8.225869206702032E-09
   8.540195003307095E-09   8.866531745809023E-09   9.205338391888914E-09
   9.557091436623998E-09   9.922285582607776E-09   1.030143443567538E-08
   1.069507122721274E-08   1.110374956406538E-08   1.152804420710089E-08
   1.196855187952071E-08   1.242589210605713E-08   1.290070808423602E-08
   1.339366758893047E-08   1.390546391147694E-08   1.443681683467501E-08
   1.498847364504149E-08   1.556121018374228E-08   1.615583193768004E-08
   1.677317517227137E-08   1.741410810750717E-08   1.807953213894924E-08
   1.877038310538033E-08   1.948763260489032E-08   2.023228936124836E-08
   2.100540064248352E-08   2.180805373366743E-08   2.264137746597062E-08
   2.350654380414251E-08   2.440476949464637E-08   2.533731777676808E-08
   2.630550015910361E-08   2.731067826392335E-08   2.835426574200711E-08
   2.943773026064112E-08   3.056259556757341E-08   3.173044363382900E-08
   3.294291687839762E-08   3.420172047792241E-08   3.550862476463707E-08
   3.686546771592194E-08   3.827415753898100E-08   3.973667535427248E-08
   4.125507798146652E-08   4.283150083184701E-08   4.446816091122305E-08
   4.616735993757381E-08   4.793148757780836E-08   4.976302480819186E-08
   5.166454740316283E-08   5.363872955744520E-08   5.568834764654868E-08
   5.781628413094389E-08   6.002553160940025E-08   6.231919702718645E-08
   6.470050604504710E-08   6.717280757510034E-08   6.973957849003083E-08
   7.240442851219903E-08   7.517110528954051E-08   7.804349966538767E-08
   8.102565114962651E-08   8.412175359887511E-08   8.733616111367031E-08
   9.067339416095319E-08   9.413814593045589E-08   9.773528893392867E-08
   1.014698818564808E-07   1.053471766696656E-07   1.093726260163098E-07
   1.135518908774623E-07   1.178908485322444E-07   1.223956008217846E-07
   1.270724827288554E-07   1.319280712852697E-07   1.369691948195538E-07
   1.422029425578977E-07   1.476366745918730E-07   1.532780322269262E-07
   1.591349487261946E-07   1.652156604647365E-07   1.715287185098570E-07
   1.780830006437998E-07   1.848877238456990E-07   1.919524572503336E-07
   1.992871356018877E-07   2.069020732216288E-07   2.148079785091243E-07
   2.230159689973726E-07   2.315375869830061E-07   2.403848157535164E-07
   2.495700964343127E-07   2.591063454792736E-07   2.690069728293680E-07
   2.792859007648564E-07   2.899575834775489E-07   3.010370273906275E-07
   3.125398122545637E-07   3.244821130487722E-07   3.368807227197648E-07
   3.497530757877329E-07   3.631172728547299E-07   3.769921060488647E-07
   3.913970854402415E-07   4.063524664657641E-07   4.218792784012707E-07
   4.379993539210363E-07   4.547353597861426E-07   4.721108287048046E-07
   4.901501924092320E-07   5.088788159959202E-07   5.283230335769818E-07
   5.485101852929832E-07   5.694686557392409E-07   5.912279138592297E-07
   6.138185543614308E-07   6.372723407175667E-07   6.616222498026129E-07
   6.869025182392951E-07   7.131486905120619E-07   7.403976689180679E-07
   7.686877654252261E-07   7.980587555103038E-07   8.285519340521375E-07
   8.602101733591581E-07   8.930779834116565E-07   9.272015744042516E-07
   9.626289216756859E-07   9.994098331171734E-07   1.037596019154156E-06
   1.077241165398945E-06   1.118401008077010E-06   1.161133412331808E-06
   1.205498453519029E-06   1.251558501602465E-06   1.299378308772500E-06
   1.349025100407092E-06   1.400568669504851E-06   1.454081474722725E-06
   1.509638742152984E-06   1.567318570985472E-06   1.627202043201776E-06
   1.689373337454347E-06   1.753919847291089E-06   1.820932303891295E-06
   1.890504903483435E-06   1.962735439624048E-06   2.037725440524989E-06
   2.115580311616501E-06   2.196409483551156E-06   2.280326565852236E-06
   2.367449506423478E-06   2.457900757141212E-06   2.551807445764870E-06
   2.649301554400711E-06   2.750520104775118E-06   2.855605350568640E-06
   2.964704977089790E-06   3.077972308556260E-06   3.195566523285169E-06
   3.317652877083148E-06   3.444402935156474E-06   3.575994812859408E-06
   3.712613425621225E-06   3.854450748399513E-06   4.001706085021872E-06
   4.154586347793331E-06   4.313306347759649E-06   4.478089096031608E-06
   4.649166116590254E-06   4.826777771012673E-06   5.011173595566151E-06
   5.202612651148277E-06   5.401363886554584E-06   5.607706515583148E-06
   5.821930408503467E-06   6.044336498433189E-06   6.275237203188700E-06
   6.514956863202862E-06   6.763832196108823E-06   7.022212768636945E-06
   7.290461486469251E-06   7.568955102748078E-06   7.858084745924914E-06
   8.158256467711040E-06   8.469891811865783E-06   8.793428404634991E-06
   9.129320567645867E-06   9.478039954119762E-06   9.840076209277967E-06
   1.021593765586800E-05   1.060615200575044E-05   1.101126709854992E-05
   1.143185166837934E-05   1.186849613970290E-05   1.232181345346235E-05
   1.279243992458180E-05   1.328103613205429E-05   1.378828784285239E-05
   1.431490697092226E-05   1.486163257259622E-05   1.542923187981534E-05
   1.601850137256614E-05   1.663026789203251E-05   1.726538979599351E-05
   1.792475815806381E-05   1.860929801243345E-05   1.931996964582096E-05
   2.005776993842928E-05   2.082373375574182E-05   2.161893539308814E-05
   2.244449007495382E-05   2.330155551112473E-05   2.419133351175891E-05
   2.511507166366348E-05   2.607406507003982E-05   2.706965815609073E-05
   2.810324654298751E-05   2.917627899274551E-05   3.029025942667532E-05
   3.144674902019772E-05   3.264736837684499E-05   3.389379978447507E-05
   3.518778955673336E-05   3.653115046299351E-05   3.792576425007037E-05
   3.937358425915977E-05   4.087663814156473E-05   4.243703067689528E-05
   4.405694669758716E-05   4.573865412371303E-05   4.748450711219495E-05
   4.929694932469922E-05   5.117851731864505E-05   5.313184406590237E-05
   5.515966260395143E-05   5.726480982443645E-05   5.945023040421393E-05
   6.171898088420793E-05   6.407423390156997E-05   6.651928258079584E-05
   6.905754508976786E-05   7.169256936677105E-05   7.442803802485181E-05
   7.726777344007637E-05   8.021574303049205E-05   8.327606473282844E-05
   8.645301268425751E-05   8.975102311675554E-05   9.317470047191172E-05
   9.672882374431136E-05   1.004183530618611E-04   1.042484365118150E-04
   1.082244172214620E-04   1.123518407028621E-04   1.166364624712594E-04
   1.210842559472089E-04   1.257014206527574E-04   1.304943907124421E-04
   1.354698436701622E-04   1.406347096334894E-04   1.459961807572374E-04
   1.515617210786701E-04   1.573390767170533E-04   1.633362864507555E-04
   1.695616926855210E-04   1.760239528280460E-04   1.827320510794450E-04
   1.896953106637069E-04   1.969234065067589E-04   2.044263783822996E-04
   2.122146445410485E-04   2.202990158407398E-04   2.286907103946514E-04
   2.374013687571273E-04   2.464430696651538E-04   2.558283463556794E-04
   2.655702034790181E-04   2.756821346293401E-04   2.861781405140168E-04
   2.970727477841200E-04   3.083810285493580E-04   3.201186206012163E-04
   3.323017483690368E-04   3.449472446344800E-04   3.580725730305822E-04
   3.716958513525415E-04   3.858358757081378E-04   4.005121455366273E-04
   4.157448895257418E-04   4.315550924575004E-04   4.479645230142680E-04
   4.649957625776462E-04   4.826722350535788E-04   5.010182377582269E-04
   5.200589733999576E-04   5.398205831941184E-04   5.603301811479697E-04
   5.816158895545467E-04   6.037068757350870E-04   6.266333900708485E-04
   6.504268053662816E-04   6.751196575865885E-04   7.007456880138944E-04
   7.273398868674641E-04   7.549385384343894E-04   7.835792677586544E-04
   8.133010889373096E-04   8.441444550739993E-04   8.761513099411002E-04
   9.093651414029719E-04   9.438310366540158E-04   9.795957393264386E-04
   1.016707708523765E-03   1.055217179837357E-03   1.095176228404249E-03
   1.136638834065925E-03   1.179660948688500E-03   1.224300565706040E-03
   1.270617791949828E-03   1.318674921827028E-03   1.368536513913674E-03
   1.420269470027258E-03   1.473943116845312E-03   1.529629290137205E-03
   1.587402421676554E-03   1.647339628902910E-03   1.709520807401143E-03
   1.774028726267768E-03   1.840949126433561E-03   1.910370822011615E-03
   1.982385804740373E-03   2.057089351590465E-03   2.134580135603941E-03
   2.214960340033989E-03   2.298335775851845E-03   2.384816002687140E-03
   2.474514453265879E-03   2.567548561408975E-03   2.664039893652233E-03
   2.764114284545869E-03   2.867901975689633E-03   2.975537758555780E-03
   3.087161121148882E-03   3.202916398547554E-03   3.322952927368041E-03
   3.447425204185294E-03   3.576493047940510E-03   3.710321766358536E-03
   3.849082326391119E-03   3.992951528693932E-03   4.142112186137451E-03
   4.296753306341361E-03   4.457070278212419E-03   4.623265062454426E-03
   4.795546386005686E-03   4.974129940347004E-03   5.159238583607377E-03
   5.351102546379132E-03   5.549959641136884E-03   5.756055475134995E-03
   5.969643666639039E-03   6.190986064323088E-03   6.420352969641948E-03
   6.658023361961198E-03   6.904285126199308E-03   7.159435282707705E-03
   7.423780219080397E-03   7.697635923551448E-03   7.981328219600986E-03
   8.275193001349488E-03   8.579576469278637E-03   8.894835365769493E-03
   9.221337209900291E-03   9.559460530893876E-03   9.909595099546526E-03
   1.027214215691273E-02   1.064751463945305E-02   1.103613739978590E-02
   1.143844742211089E-02   1.185489403129171E-02   1.228593909450725E-02
   1.273205721428817E-02   1.319373591166517E-02   1.367147579805600E-02
   1.416579073441102E-02   1.467720797602938E-02   1.520626830133625E-02
   1.575352612278938E-02   1.631954957795150E-02   1.690492059862337E-02
   1.751023495578976E-02   1.813610227797174E-02   1.878314604041866E-02
   1.945200352240198E-02   2.014332572969090E-02   2.085777727910499E-02
   2.159603624183739E-02   2.235879394203811E-02   2.314675470693070E-02
   2.396063556450738E-02   2.480116588461705E-02   2.566908695901186E-02
   2.656515151566666E-02   2.749012316242381E-02   2.844477575473879E-02
   2.942989268202840E-02   3.044626606682729E-02   3.149469587066636E-02
   3.257598890028241E-02   3.369095770745366E-02   3.484041937544809E-02
   3.602519418474352E-02   3.724610415036177E-02   3.850397142283515E-02
   3.979961654449563E-02   4.113385655246552E-02   4.250750291940521E-02
   4.392135932277178E-02   4.537621923304882E-02   4.687286331111813E-02
   4.841205660469602E-02   4.999454553350328E-02   5.162105465264259E-02
   5.329228318346860E-02   5.500890130110755E-02   5.677154616769569E-02
   5.858081770036158E-02   6.043727406302220E-02   6.234142687114844E-02
   6.429373609884914E-02   6.629460467790023E-02   6.834437277871745E-02
   7.044331176378836E-02   7.259161780469596E-02   7.478940515465696E-02
   7.703669906944390E-02   7.933342837067403E-02   8.167941764679316E-02
   8.407437908861094E-02   8.651790395804451E-02   8.900945369078024E-02
   9.154835063589047E-02   9.413376843811633E-02   9.676472207149671E-02
   9.944005753639515E-02   1.021584412357234E-01   1.049183490503196E-01
   1.077180551380782E-01   1.105556204865065E-01   1.134288812540001E-01
   1.163354369412696E-01   1.192726384410362E-01   1.222375760214210E-01
   1.252270673063244E-01   1.282376453246265E-01   1.312655467092012E-01
   1.343067001365368E-01   1.373567151082491E-01   1.404108711868702E-01
   1.434641078100695E-01   1.465110148198411E-01   1.495458238561242E-01
   1.525624007778336E-01   1.555542392881879E-01   1.585144559555594E-01
   1.614357868356489E-01   1.643105859154898E-01   1.671308256145063E-01
   1.698880995922996E-01   1.725736281269011E-01   1.751782663405745E-01
   1.776925155625915E-01   1.801065381294419E-01   1.824101759322148E-01
   1.845929730280244E-01   1.866442026368287E-01   1.885528988462553E-01
   1.903078933445309E-01   1.918978574946054E-01   1.933113500503967E-01
   1.945368707979473E-01   1.955629203793511E-01   1.963780665247239E-01
   1.969710168762766E-01   1.973306985377903E-01   1.974463444214511E-01
   1.973075863911048E-01   1.969045551155183E-01   1.962279864462202E-01
   1.952693340210117E-01   1.940208876654580E-01   1.924758970198672E-01
   1.906286996578834E-01   1.884748527845309E-01   1.860112674062538E-01
   1.832363436534569E-01   1.801501057079417E-01   1.767543345445034E-01
   1.730526964395770E-01   1.690508649324091E-01   1.647566336489027E-01
   1.601800171188863E-01   1.553333364388644E-01   1.502312863601702E-01
   1.448909801237410E-01   1.393319681255771E-01   1.335762262907357E-01
   1.276481098690077E-01   1.215742682543590E-01   1.153835163859702E-01
   1.091066583259416E-01   1.027762587432196E-01   9.642635828172408E-02
   9.009212917072539E-02   8.380946796515228E-02   7.761452300088879E-02
   7.154315503299011E-02   6.563033060960782E-02   5.990944903634332E-02
   5.441160531675914E-02   4.916479322354679E-02   4.419305466516354E-02
   3.951558376223134E-02   3.514579652718569E-02   3.109037973088980E-02
   2.734833541249886E-02   2.391004050304517E-02   2.075634413496208E-02
   1.786361339626430E-02   1.522400405658220E-02   1.283332688797806E-02
   1.068598968755158E-02   8.775021267749206E-03   7.092100130563883E-03
   5.627587911143928E-03   4.370567769763134E-03   3.308888022532985E-03
   2.429211430870715E-03   1.717070717708158E-03   1.156931044184906E-03
   7.322603632392011E-04   4.256087647238616E-04   2.186981381027131E-04
   9.252370086731965E-05   2.746916956941625E-05   3.437581231557907E-06
  -5.551115123125783E-17   0.000000000000000E+00   0.000000000000000E+00
   0.000000000000000E+00   0.000000000000000E+00   0.000000000000000E+00
   0.000000000000000E+00   0.000000000000000E+00   0.000000000000000E+00
   0.000000000000000E+00   0.000000000000000E+00   0.000000000000000E+00
   0.000000000000000E+00   0.000000000000000E+00   0.000000000000000E+00
   0.000000000000000E+00   0.000000000000000E+00   0.000000000000000E+00
   0.000000000000000E+00   0.000000000000000E+00   0.000000000000000E+00
   0.000000000000000E+00   0.000000000000000E+00   0.000000000000000E+00
   0.000000000000000E+00   0.000000000000000E+00   0.000000000000000E+00
   0.000000000000000E+00   0.000000000000000E+00   0.000000000000000E+00
   0.000000000000000E+00   0.000000000000000E+00   0.000000000000000E+00
   0.000000000000000E+00   0.000000000000000E+00   0.000000000000000E+00
   0.000000000000000E+00   0.000000000000000E+00   0.000000000000000E+00
   0.000000000000000E+00   0.000000000000000E+00   0.000000000000000E+00
   0.000000000000000E+00   0.000000000000000E+00   0.000000000000000E+00
   0.000000000000000E+00   0.000000000000000E+00   0.000000000000000E+00
   0.000000000000000E+00   0.000000000000000E+00   0.000000000000000E+00
   0.000000000000000E+00   0.000000000000000E+00   0.000000000000000E+00
   0.000000000000000E+00   0.000000000000000E+00   0.000000000000000E+00
   0.000000000000000E+00   0.000000000000000E+00   0.000000000000000E+00
   0.000000000000000E+00   0.000000000000000E+00   0.000000000000000E+00
   0.000000000000000E+00   0.000000000000000E+00   0.000000000000000E+00
   0.000000000000000E+00   0.000000000000000E+00   0.000000000000000E+00
   0.000000000000000E+00   0.000000000000000E+00   0.000000000000000E+00
   0.000000000000000E+00   0.000000000000000E+00   0.000000000000000E+00
   0.000000000000000E+00   0.000000000000000E+00   0.000000000000000E+00
   0.000000000000000E+00   0.000000000000000E+00   0.000000000000000E+00
   0.000000000000000E+00   0.000000000000000E+00   0.000000000000000E+00
   0.000000000000000E+00   0.000000000000000E+00   0.000000000000000E+00
   0.000000000000000E+00   0.000000000000000E+00   0.000000000000000E+00
   0.000000000000000E+00   0.000000000000000E+00   0.000000000000000E+00
   0.000000000000000E+00   0.000000000000000E+00   0.000000000000000E+00
   0.000000000000000E+00   0.000000000000000E+00   0.000000000000000E+00
   0.000000000000000E+00   0.000000000000000E+00   0.000000000000000E+00
   0.000000000000000E+00   0.000000000000000E+00   0.000000000000000E+00
   0.000000000000000E+00   0.000000000000000E+00   0.000000000000000E+00
   0.000000000000000E+00   0.000000000000000E+00   0.000000000000000E+00
   0.000000000000000E+00   0.000000000000000E+00   0.000000000000000E+00
   0.000000000000000E+00   0.000000000000000E+00   0.000000000000000E+00
   0.000000000000000E+00   0.000000000000000E+00   0.000000000000000E+00
   0.000000000000000E+00   0.000000000000000E+00   0.000000000000000E+00
   0.000000000000000E+00   0.000000000000000E+00   0.000000000000000E+00
   0.000000000000000E+00   0.000000000000000E+00   0.000000000000000E+00
   0.000000000000000E+00   0.000000000000000E+00   0.000000000000000E+00
   0.000000000000000E+00   0.000000000000000E+00   0.000000000000000E+00
   0.000000000000000E+00   0.000000000000000E+00   0.000000000000000E+00
   0.000000000000000E+00   0.000000000000000E+00   0.000000000000000E+00
   0.000000000000000E+00   0.000000000000000E+00   0.000000000000000E+00
   0.000000000000000E+00   0.000000000000000E+00   0.000000000000000E+00
   0.000000000000000E+00   0.000000000000000E+00   0.000000000000000E+00
   0.000000000000000E+00   0.000000000000000E+00   0.000000000000000E+00
   0.000000000000000E+00   0.000000000000000E+00   0.000000000000000E+00
   0.000000000000000E+00   0.000000000000000E+00   0.000000000000000E+00
   0.000000000000000E+00   0.000000000000000E+00   0.000000000000000E+00
   0.000000000000000E+00   0.000000000000000E+00   0.000000000000000E+00
   0.000000000000000E+00   0.000000000000000E+00   0.000000000000000E+00
   0.000000000000000E+00   0.000000000000000E+00   0.000000000000000E+00
   0.000000000000000E+00   0.000000000000000E+00   0.000000000000000E+00
   0.000000000000000E+00   0.000000000000000E+00   0.000000000000000E+00
   0.000000000000000E+00   0.000000000000000E+00   0.000000000000000E+00
   0.000000000000000E+00   0.000000000000000E+00   0.000000000000000E+00
   0.000000000000000E+00   0.000000000000000E+00   0.000000000000000E+00
   0.000000000000000E+00   0.000000000000000E+00   0.000000000000000E+00
   0.000000000000000E+00   0.000000000000000E+00   0.000000000000000E+00
   0.000000000000000E+00   0.000000000000000E+00   0.000000000000000E+00
   0.000000000000000E+00   0.000000000000000E+00   0.000000000000000E+00
   0.000000000000000E+00   0.000000000000000E+00   0.000000000000000E+00
   0.000000000000000E+00   0.000000000000000E+00   0.000000000000000E+00
   0.000000000000000E+00   0.000000000000000E+00   0.000000000000000E+00
   0.000000000000000E+00   0.000000000000000E+00   0.000000000000000E+00
   0.000000000000000E+00   0.000000000000000E+00   0.000000000000000E+00
   0.000000000000000E+00   0.000000000000000E+00   0.000000000000000E+00
   0.000000000000000E+00   0.000000000000000E+00   0.000000000000000E+00
   0.000000000000000E+00   0.000000000000000E+00   0.000000000000000E+00
   0.000000000000000E+00   0.000000000000000E+00   0.000000000000000E+00
   0.000000000000000E+00   0.000000000000000E+00   0.000000000000000E+00
   0.000000000000000E+00   0.000000000000000E+00   0.000000000000000E+00
   0.000000000000000E+00   0.000000000000000E+00   0.000000000000000E+00
   0.000000000000000E+00   0.000000000000000E+00   0.000000000000000E+00
   0.000000000000000E+00   0.000000000000000E+00   0.000000000000000E+00
   0.000000000000000E+00   0.000000000000000E+00   0.000000000000000E+00
   0.000000000000000E+00   0.000000000000000E+00   0.000000000000000E+00
   0.000000000000000E+00   0.000000000000000E+00   0.000000000000000E+00
   0.000000000000000E+00   0.000000000000000E+00   0.000000000000000E+00
   0.000000000000000E+00   0.000000000000000E+00   0.000000000000000E+00
   0.000000000000000E+00   0.000000000000000E+00   0.000000000000000E+00
   0.000000000000000E+00   0.000000000000000E+00   0.000000000000000E+00
   0.000000000000000E+00   0.000000000000000E+00   0.000000000000000E+00
   0.000000000000000E+00   0.000000000000000E+00   0.000000000000000E+00
   0.000000000000000E+00   0.000000000000000E+00   0.000000000000000E+00
   0.000000000000000E+00   0.000000000000000E+00   0.000000000000000E+00
   0.000000000000000E+00   0.000000000000000E+00   0.000000000000000E+00
   0.000000000000000E+00   0.000000000000000E+00   0.000000000000000E+00
   0.000000000000000E+00   0.000000000000000E+00   0.000000000000000E+00
   0.000000000000000E+00   0.000000000000000E+00   0.000000000000000E+00
   0.000000000000000E+00   0.000000000000000E+00   0.000000000000000E+00
   0.000000000000000E+00   0.000000000000000E+00   0.000000000000000E+00
   0.000000000000000E+00   0.000000000000000E+00   0.000000000000000E+00
   0.000000000000000E+00   0.000000000000000E+00   0.000000000000000E+00
   0.000000000000000E+00   0.000000000000000E+00   0.000000000000000E+00
   0.000000000000000E+00   0.000000000000000E+00   0.000000000000000E+00
   0.000000000000000E+00   0.000000000000000E+00   0.000000000000000E+00
   0.000000000000000E+00   0.000000000000000E+00   0.000000000000000E+00
   0.000000000000000E+00   0.000000000000000E+00   0.000000000000000E+00
   0.000000000000000E+00   0.000000000000000E+00   0.000000000000000E+00
   0.000000000000000E+00   0.000000000000000E+00
      </PP_QIJL.1.4.1>
      <PP_QIJL.2.2.0 first_index="2" second_index="2" composite_index="3" angular_momentum="0" size="1211">
  -7.781144583225808E-10  -7.978125195979383E-10  -8.180092396676113E-10
  -8.387172421390270E-10  -8.599494701877586E-10  -8.817191946474210E-10
  -9.040400223043813E-10  -9.269259044024401E-10  -9.503911453628102E-10
  -9.744504117248551E-10  -9.991187413131407E-10  -1.024411552636572E-09
  -1.050344654525461E-09  -1.076934256012560E-09  -1.104196976464240E-09
  -1.132149855968124E-09  -1.160810365983704E-09  -1.190196420262572E-09
  -1.220326386045089E-09  -1.251219095540526E-09  -1.282893857697785E-09
  -1.315370470274134E-09  -1.348669232209448E-09  -1.382810956313700E-09
  -1.417816982275657E-09  -1.453709190000865E-09  -1.490510013287312E-09
  -1.528242453847274E-09  -1.566930095684139E-09  -1.606597119833178E-09
  -1.647268319475470E-09  -1.688969115434454E-09  -1.731725572064764E-09
  -1.775564413543306E-09  -1.820513040572737E-09  -1.866599547507786E-09
  -1.913852739915146E-09  -1.962302152577893E-09  -2.011978067955675E-09
  -2.062911535112255E-09  -2.115134389122159E-09  -2.168679270968649E-09
  -2.223579647945398E-09  -2.279869834574625E-09  -2.337585014054815E-09
  -2.396761260251325E-09  -2.457435560243746E-09  -2.519645837444027E-09
  -2.583430975299832E-09  -2.648830841597978E-09  -2.715886313383074E-09
  -2.784639302507015E-09  -2.855132781825251E-09  -2.927410812056212E-09
  -3.001518569320710E-09  -3.077502373378454E-09  -3.155409716579422E-09
  -3.235289293548118E-09  -3.317191031619293E-09  -3.401166122044173E-09
  -3.487267051986615E-09  -3.575547637329321E-09  -3.666063056310504E-09
  -3.758869884012068E-09  -3.854026127720908E-09  -3.951591263185299E-09
  -4.051626271789208E-09  -4.154193678667623E-09  -4.259357591786791E-09
  -4.367183742013808E-09  -4.477739524200500E-09  -4.591094039307436E-09
  -4.707318137594231E-09  -4.826484462903296E-09  -4.948667498064595E-09
  -5.073943611449802E-09  -5.202391104705032E-09  -5.334090261691921E-09
  -5.469123398667621E-09  -5.607574915735175E-09  -5.749531349596262E-09
  -5.895081427639487E-09  -6.044316123397868E-09  -6.197328713410232E-09
  -6.354214835522115E-09  -6.515072548662470E-09  -6.680002394133704E-09
  -6.849107458453256E-09  -7.022493437786000E-09  -7.200268704007812E-09
  -7.382544372441450E-09  -7.569434371307274E-09  -7.761055512932059E-09
  -7.957527566760492E-09  -8.158973334214985E-09  -8.365518725450492E-09
  -8.577292838052469E-09  -8.794428037727033E-09  -9.017060041033818E-09
  -9.245328000213278E-09  -9.479374590161243E-09  -9.719346097605418E-09
  -9.965392512539317E-09  -1.021766762197082E-08  -1.047632910604415E-08
  -1.074153863659490E-08  -1.101346197820032E-08  -1.129226909178742E-08
  -1.157813424086410E-08  -1.187123610043955E-08  -1.217175786870177E-08
  -1.247988738152246E-08  -1.279581722986049E-08  -1.311974488013743E-08
  -1.345187279766059E-08  -1.379240857317019E-08  -1.414156505259039E-08
  -1.449956047006488E-08  -1.486661858436018E-08  -1.524296881872225E-08
  -1.562884640427324E-08  -1.602449252703867E-08  -1.643015447869642E-08
  -1.684608581114201E-08  -1.727254649496679E-08  -1.770980308194781E-08
  -1.815812887165141E-08  -1.861780408225412E-08  -1.908911602568818E-08
  -1.957235928722075E-08  -2.006783590957906E-08  -2.057585558173698E-08
  -2.109673583248051E-08  -2.163080222887352E-08  -2.217838857974775E-08
  -2.273983714434386E-08  -2.331549884623460E-08  -2.390573349266331E-08
  -2.451090999943491E-08  -2.513140662150038E-08  -2.576761118937794E-08
  -2.641992135155977E-08  -2.708874482305503E-08  -2.777449964022479E-08
  -2.847761442206829E-08  -2.919852863812338E-08  -2.993769288314912E-08
  -3.069556915876205E-08  -3.147263116220178E-08  -3.226936458240723E-08
  -3.308626740358744E-08  -3.392385021647780E-08  -3.478263653747552E-08
  -3.566316313585410E-08  -3.656598036926146E-08  -3.749165252771070E-08
  -3.844075818627955E-08  -3.941389056673828E-08  -4.041165790833204E-08
  -4.143468384795009E-08  -4.248360780991830E-08  -4.355908540565992E-08
  -4.466178884347360E-08  -4.579240734868470E-08  -4.695164759443359E-08
  -4.814023414336774E-08  -4.935890990051764E-08  -5.060843657763494E-08
  -5.188959516928686E-08  -5.320318644100282E-08  -5.455003142977731E-08
  -5.593097195724506E-08  -5.734687115584539E-08  -5.879861400830734E-08
  -6.028710790079237E-08  -6.181328319003803E-08  -6.337809378486179E-08
  -6.498251774238286E-08  -6.662755787933897E-08  -6.831424239887886E-08
  -7.004362553322019E-08  -7.181678820257939E-08  -7.363483869077920E-08
  -7.549891333796152E-08  -7.741017725083553E-08  -7.936982503090475E-08
  -8.137908152113185E-08  -8.343920257150218E-08  -8.555147582396969E-08
  -8.771722151727370E-08  -8.993779331212740E-08  -9.221457913730002E-08
  -9.454900205711333E-08  -9.694252116090162E-08  -9.939663247498822E-08
  -1.019128698977463E-07  -1.044928061583348E-07  -1.071380537997005E-07
  -1.098502661864681E-07  -1.126311385383437E-07  -1.154824089896776E-07
  -1.184058596758538E-07  -1.214033178471767E-07  -1.244766570109592E-07
  -1.276277981025225E-07  -1.308587106858361E-07  -1.341714141845589E-07
  -1.375679791442368E-07  -1.410505285264573E-07  -1.446212390357656E-07
  -1.482823424801671E-07  -1.520361271660783E-07  -1.558849393285837E-07
  -1.598311845979037E-07  -1.638773295029867E-07  -1.680259030131593E-07
  -1.722794981188113E-07  -1.766407734520884E-07  -1.811124549486166E-07
  -1.856973375512932E-07  -1.903982869572049E-07  -1.952182414087769E-07
  -2.001602135302562E-07  -2.052272922106906E-07  -2.104226445345759E-07
  -2.157495177613706E-07  -2.212112413551318E-07  -2.268112290655227E-07
  -2.325529810615038E-07  -2.384400861190412E-07  -2.444762238641881E-07
  -2.506651670729620E-07  -2.570107840294307E-07  -2.635170409435002E-07
  -2.701880044299097E-07  -2.770278440499727E-07  -2.840408349176754E-07
  -2.912313603717369E-07  -2.986039147153166E-07  -3.061631060250801E-07
  -3.139136590313663E-07  -3.218604180712795E-07  -3.300083501165245E-07
  -3.383625478778996E-07  -3.469282329883781E-07  -3.557107592667643E-07
  -3.647156160639747E-07  -3.739484316940235E-07  -3.834149769518667E-07
  -3.931211687202993E-07  -4.030730736681573E-07  -4.132769120421431E-07
  -4.237390615546347E-07  -4.344660613699189E-07  -4.454646161913321E-07
  -4.567416004518649E-07  -4.683040626108548E-07  -4.801592295594417E-07
  -4.923145111375521E-07  -5.047775047652279E-07  -5.175560001911922E-07
  -5.306579843616273E-07  -5.440916464122020E-07  -5.578653827864707E-07
  -5.719878024838429E-07  -5.864677324404015E-07  -6.013142230459378E-07
  -6.165365538006416E-07  -6.321442391149941E-07  -6.481470342564799E-07
  -6.645549414468342E-07  -6.813782161136465E-07  -6.986273733002095E-07
  -7.163131942376395E-07  -7.344467330833630E-07  -7.530393238301808E-07
  -7.721025873902385E-07  -7.916484388583159E-07  -8.116890949589847E-07
  -8.322370816822916E-07  -8.533052421127228E-07  -8.749067444563640E-07
  -8.970550902712553E-07  -9.197641229060952E-07  -9.430480361525642E-07
  -9.669213831166699E-07  -9.913990853146743E-07  -1.016496441999264E-06
  -1.042229139721814E-06  -1.068613262136711E-06  -1.095665300053857E-06
  -1.123402161745655E-06  -1.151841183514895E-06  -1.181000140530161E-06
  -1.210897257935530E-06  -1.241551222241491E-06  -1.272981193004227E-06
  -1.305206814800527E-06  -1.338248229505851E-06  -1.372126088883184E-06
  -1.406861567490572E-06  -1.442476375915390E-06  -1.478992774343618E-06
  -1.516433586472620E-06  -1.554822213776091E-06  -1.594182650130105E-06
  -1.634539496809411E-06  -1.675917977863326E-06  -1.718343955880859E-06
  -1.761843948154895E-06  -1.806445143255554E-06  -1.852175418023087E-06
  -1.899063354990902E-06  -1.947138260249637E-06  -1.996430181763442E-06
  -2.046969928149873E-06  -2.098789087935206E-06  -2.151920049297125E-06
  -2.206396020307186E-06  -2.262251049685676E-06  -2.319520048081820E-06
  -2.378238809892680E-06  -2.438444035634332E-06  -2.500173354879330E-06
  -2.563465349774779E-06  -2.628359579155731E-06  -2.694896603268915E-06
  -2.763118009122324E-06  -2.833066436476456E-06  -2.904785604493450E-06
  -2.978320339060794E-06  -3.053716600806619E-06  -3.131021513824172E-06
  -3.210283395123337E-06  -3.291551784827641E-06  -3.374877477135643E-06
  -3.460312552065935E-06  -3.547910408005756E-06  -3.637725795083415E-06
  -3.729814849385448E-06  -3.824235128039891E-06  -3.921045645187482E-06
  -4.020306908863444E-06  -4.122080958812740E-06  -4.226431405262476E-06
  -4.333423468675742E-06  -4.443124020511559E-06  -4.555601625016589E-06
  -4.670926582074595E-06  -4.789170971140441E-06  -4.910408696286136E-06
  -5.034715532386937E-06  -5.162169172476519E-06  -5.292849276300671E-06
  -5.426837520099909E-06  -5.564217647652121E-06  -5.705075522607000E-06
  -5.849499182145154E-06  -5.997578891995270E-06  -6.149407202843700E-06
  -6.305079008171826E-06  -6.464691603557111E-06  -6.628344747475129E-06
  -6.796140723640361E-06  -6.968184404924769E-06  -7.144583318894105E-06
  -7.325447715002725E-06  -7.510890633489118E-06  -7.701027976014971E-06
  -7.895978578091970E-06  -8.095864283341619E-06  -8.300810019634255E-06
  -8.510943877155097E-06  -8.726397188445800E-06  -8.947304610471691E-06
  -9.173804208765864E-06  -9.406037543702559E-06  -9.644149758953927E-06
  -9.888289672185255E-06  -1.013860986804523E-05  -1.039526679350957E-05
  -1.065842085563708E-05  -1.092823652179969E-05  -1.120488242244868E-05
  -1.148853145648140E-05  -1.177936089927413E-05  -1.207755251344889E-05
  -1.238329266244262E-05  -1.269677242695052E-05  -1.301818772431543E-05
  -1.334773943093833E-05  -1.368563350778610E-05  -1.403208112907475E-05
  -1.438729881420882E-05  -1.475150856305891E-05  -1.512493799466195E-05
  -1.550782048943079E-05  -1.590039533496158E-05  -1.630290787553031E-05
  -1.671560966537146E-05  -1.713875862583455E-05  -1.757261920651674E-05
  -1.801746255047150E-05  -1.847356666359717E-05  -1.894121658831044E-05
  -1.942070458161332E-05  -1.991233029766491E-05  -2.041640097497103E-05
  -2.093323162830966E-05  -2.146314524551075E-05  -2.200647298921365E-05
  -2.256355440372822E-05  -2.313473762712779E-05  -2.372037960870691E-05
  -2.432084633193932E-05  -2.493651304307487E-05  -2.556776448551825E-05
  -2.621499514013505E-05  -2.687860947163568E-05  -2.755902218119014E-05
  -2.825665846543120E-05  -2.897195428200758E-05  -2.970535662185211E-05
  -3.045732378833507E-05  -3.122832568347630E-05  -3.201884410139424E-05
  -3.282937302917528E-05  -3.366041895534970E-05  -3.451250118616759E-05
  -3.538615216987082E-05  -3.628191782916316E-05  -3.720035790208590E-05
  -3.814204629151040E-05  -3.910757142346597E-05  -4.009753661452553E-05
  -4.111256044847784E-05  -4.215327716252102E-05  -4.322033704321659E-05
  -4.431440683245178E-05  -4.543617014366164E-05  -4.658632788857005E-05
  -4.776559871471536E-05  -4.897471945403178E-05  -5.021444558276685E-05
  -5.148555169301942E-05  -5.278883197619209E-05  -5.412510071865878E-05
  -5.549519280995403E-05  -5.689996426380150E-05  -5.834029275230419E-05
  -5.981707815362839E-05  -6.133124311352219E-05  -6.288373362101523E-05
  -6.447551959865956E-05  -6.610759550767636E-05  -6.778098096838408E-05
  -6.949672139629426E-05  -7.125588865426707E-05  -7.305958172113400E-05
  -7.490892737720030E-05  -7.680508090705262E-05  -7.874922682010828E-05
  -8.074257958935060E-05  -8.278638440871077E-05  -8.488191796956319E-05
  -8.703048925681604E-05  -8.923344036509030E-05  -9.149214733549089E-05
  -9.380802101348966E-05  -9.618250792845016E-05  -9.861709119533711E-05
  -1.011132914391710E-04  -1.036726677427946E-04  -1.062968186185427E-04
  -1.089873830044109E-04  -1.117460412853407E-04  -1.145745163402520E-04
  -1.174745746154666E-04  -1.204480272251887E-04  -1.234967310797184E-04
  -1.266225900420955E-04  -1.298275561138852E-04  -1.331136306508380E-04
  -1.364828656091706E-04  -1.399373648232381E-04  -1.434792853153802E-04
  -1.471108386387515E-04  -1.508342922539569E-04  -1.546519709403436E-04
  -1.585662582428128E-04  -1.625795979550414E-04  -1.666944956400264E-04
  -1.709135201888799E-04  -1.752393054188359E-04  -1.796745517114470E-04
  -1.842220276919731E-04  -1.888845719509949E-04  -1.936650948092994E-04
  -1.985665801271248E-04  -2.035920871588657E-04  -2.087447524543748E-04
  -2.140277918080218E-04  -2.194445022566970E-04  -2.249982641279832E-04
  -2.306925431397410E-04  -2.365308925523863E-04  -2.425169553751759E-04
  -2.486544666278339E-04  -2.549472556589052E-04  -2.613992485222369E-04
  -2.680144704130331E-04  -2.747970481649636E-04  -2.817512128098333E-04
  -2.888813022013724E-04  -2.961917637047275E-04  -3.036871569532843E-04
  -3.113721566744889E-04  -3.192515555863666E-04  -3.273302673664943E-04
  -3.356133296952112E-04  -3.441059073749001E-04  -3.528132955272156E-04
  -3.617409228701800E-04  -3.708943550771159E-04  -3.802792982194279E-04
  -3.899016022952941E-04  -3.997672648463845E-04  -4.098824346647575E-04
  -4.202534155921577E-04  -4.308866704139744E-04  -4.417888248501785E-04
  -4.529666716456196E-04  -4.644271747620957E-04  -4.761774736747024E-04
  -4.882248877749901E-04  -5.005769208835426E-04  -5.132412658746402E-04
  -5.262258094157270E-04  -5.395386368244870E-04  -5.531880370463727E-04
  -5.671825077555118E-04  -5.815307605819845E-04  -5.962417264685158E-04
  -6.113245611597284E-04  -6.267886508271432E-04  -6.426436178332012E-04
  -6.588993266376617E-04  -6.755658898497828E-04  -6.926536744298027E-04
  -7.101733080432892E-04  -7.281356855720182E-04  -7.465519757851297E-04
  -7.654336281743666E-04  -7.847923799573320E-04  -8.046402632527379E-04
  -8.249896124317407E-04  -8.458530716495409E-04  -8.672436025614880E-04
  -8.891744922280798E-04  -9.116593612132851E-04  -9.347121718807428E-04
  -9.583472368924887E-04  -9.825792279149351E-04  -1.007423184536970E-03
  -1.032894523405110E-03  -1.059009047580747E-03  -1.085782956124676E-03
  -1.113232853914111E-03  -1.141375761697620E-03  -1.170229126393409E-03
  -1.199810831636576E-03  -1.230139208581018E-03  -1.261233046961812E-03
  -1.293111606424011E-03  -1.325794628123883E-03  -1.359302346608782E-03
  -1.393655501981915E-03  -1.428875352358402E-03  -1.464983686619188E-03
  -1.502002837469416E-03  -1.539955694808044E-03  -1.578865719415618E-03
  -1.618756956967156E-03  -1.659654052377370E-03  -1.701582264485418E-03
  -1.744567481086629E-03  -1.788636234318684E-03  -1.833815716409902E-03
  -1.880133795797434E-03  -1.927619033623213E-03  -1.976300700615706E-03
  -2.026208794365626E-03  -2.077374057003816E-03  -2.129827993289771E-03
  -2.183602889119260E-03  -2.238731830459686E-03  -2.295248722721968E-03
  -2.353188310577741E-03  -2.412586198230938E-03  -2.473478870152786E-03
  -2.535903712289434E-03  -2.599899033751522E-03  -2.665504088995058E-03
  -2.732759100503161E-03  -2.801705281978208E-03  -2.872384862054089E-03
  -2.944841108538320E-03  -3.019118353193830E-03  -3.095262017070352E-03
  -3.173318636395348E-03  -3.253335889034490E-03  -3.335362621531771E-03
  -3.419448876739263E-03  -3.505645922046729E-03  -3.594006278221146E-03
  -3.684583748866271E-03  -3.777433450512411E-03  -3.872611843346375E-03
  -3.970176762591783E-03  -4.070187450549631E-03  -4.172704589309038E-03
  -4.277790334138062E-03  -4.385508347564158E-03  -4.495923834154038E-03
  -4.609103576002182E-03  -4.725115968937393E-03  -4.844031059456338E-03
  -4.965920582392910E-03  -5.090857999332014E-03  -5.218918537775994E-03
  -5.350179231071621E-03  -5.484718959105370E-03  -5.622618489773932E-03
  -5.763960521236974E-03  -5.908829724958308E-03  -6.057312789541235E-03
  -6.209498465363379E-03  -6.365477610015431E-03  -6.525343234547930E-03
  -6.689190550529186E-03  -6.857117017916765E-03  -7.029222393744281E-03
  -7.205608781623861E-03  -7.386380682064503E-03  -7.571645043604501E-03
  -7.761511314755667E-03  -7.956091496755975E-03  -8.155500197125002E-03
  -8.359854684016671E-03  -8.569274941360729E-03  -8.783883724783887E-03
  -9.003806618299824E-03  -9.229172091754395E-03  -9.460111559012177E-03
  -9.696759436866728E-03  -9.939253204655817E-03  -1.018773346456065E-02
  -1.044234400256439E-02  -1.070323185004468E-02  -1.097054734597000E-02
  -1.124444419966807E-02  -1.152507955413156E-02  -1.181261404982131E-02
  -1.210721188892634E-02  -1.240904090003373E-02  -1.271827260315913E-02
  -1.303508227508414E-02  -1.335964901494150E-02  -1.369215580998608E-02
  -1.403278960148283E-02  -1.438174135063884E-02  -1.473920610450156E-02
  -1.510538306173723E-02  -1.548047563820070E-02  -1.586469153219823E-02
  -1.625824278933980E-02  -1.666134586687069E-02  -1.707422169736208E-02
  -1.749709575163600E-02  -1.793019810078796E-02  -1.837376347716422E-02
  -1.882803133414104E-02  -1.929324590454153E-02  -1.976965625751864E-02
  -2.025751635371880E-02  -2.075708509853128E-02  -2.126862639321682E-02
  -2.179240918369357E-02  -2.232870750674975E-02  -2.287780053343399E-02
  -2.343997260936296E-02  -2.401551329167022E-02  -2.460471738230204E-02
  -2.520788495735316E-02  -2.582532139211361E-02  -2.645733738148279E-02
  -2.710424895538677E-02  -2.776637748881289E-02  -2.844404970605869E-02
  -2.913759767876571E-02  -2.984735881728897E-02  -3.057367585492863E-02
  -3.131689682452287E-02  -3.207737502687869E-02  -3.285546899048669E-02
  -3.365154242193902E-02  -3.446596414644143E-02  -3.529910803777563E-02
  -3.615135293704107E-02  -3.702308255946736E-02  -3.791468538855609E-02
  -3.882655455677638E-02  -3.975908771199511E-02  -4.071268686879229E-02
  -4.168775824376358E-02  -4.268471207387518E-02  -4.370396241689265E-02
  -4.474592693285644E-02  -4.581102664553715E-02  -4.689968568274857E-02
  -4.801233099435231E-02  -4.914939204673602E-02  -5.031130049249093E-02
  -5.149848981396721E-02  -5.271139493932332E-02  -5.395045182963297E-02
  -5.521609703555527E-02  -5.650876722200886E-02  -5.782889865923847E-02
  -5.917692667859115E-02  -6.055328509126149E-02  -6.195840556820301E-02
  -6.339271697932861E-02  -6.485664469006951E-02  -6.635060981328486E-02
  -6.787502841445389E-02  -6.943031066801532E-02  -7.101685996264734E-02
  -7.263507195322307E-02  -7.428533355710321E-02  -7.596802189236702E-02
  -7.768350315552373E-02  -7.943213143617490E-02  -8.121424746605424E-02
  -8.303017729980207E-02  -8.488023092478969E-02  -8.676470079725966E-02
  -8.868386030199911E-02  -9.063796213273825E-02  -9.262723659042445E-02
  -9.465188979650756E-02  -9.671210181836000E-02  -9.880802470394129E-02
  -1.009397804228399E-01  -1.031074587108300E-01  -1.053111148151247E-01
  -1.075507671375570E-01  -1.098263947729766E-01  -1.121379349402536E-01
  -1.144852803033690E-01  -1.168682761802180E-01  -1.192867176369024E-01
  -1.217403464654678E-01  -1.242288480432717E-01  -1.267518480724009E-01
  -1.293089091978553E-01  -1.318995275035424E-01  -1.345231288854830E-01
  -1.371790653020704E-01  -1.398666109016697E-01  -1.425849580283916E-01
  -1.453332131074431E-01  -1.481103924121175E-01  -1.509154177152089E-01
  -1.537471118284146E-01  -1.566041940341918E-01  -1.594852754154662E-01
  -1.623888540896644E-01  -1.653133103546907E-01  -1.682569017557076E-01
  -1.712177580829724E-01  -1.741938763124381E-01  -1.771831155024499E-01
  -1.801831916616083E-01  -1.831916726047222E-01  -1.862059728158259E-01
  -1.892233483393705E-01  -1.922408917230446E-01  -1.952555270381642E-01
  -1.982640050062096E-01  -2.012628982629426E-01  -2.042485967945090E-01
  -2.072173035831389E-01  -2.101650305034139E-01  -2.130875945136074E-01
  -2.159806141903559E-01  -2.188395066588002E-01  -2.216594849744351E-01
  -2.244355560171497E-01  -2.271625189623313E-01  -2.298349643984725E-01
  -2.324472741653651E-01  -2.349936219917550E-01  -2.374679750161744E-01
  -2.398640962795478E-01  -2.421755482830857E-01  -2.443956977098146E-01
  -2.465177214128712E-01  -2.485346137783022E-01  -2.504391955744886E-01
  -2.522241244044245E-01  -2.538819068807547E-01  -2.554049126467028E-01
  -2.567853903686058E-01  -2.580154858276348E-01  -2.590872622392739E-01
  -2.599927229290700E-01  -2.607238364919163E-01  -2.612725645594740E-01
  -2.616308922960729E-01  -2.617908617373476E-01  -2.617446080776903E-01
  -2.614843990021103E-01  -2.610026771449658E-01  -2.602921057420098E-01
  -2.593456175229352E-01  -2.581564668687945E-01  -2.567182852319713E-01
  -2.550251397854207E-01  -2.530715952323490E-01  -2.508527786669736E-01
  -2.483644473311669E-01  -2.456030590602670E-01  -2.425658451538205E-01
  -2.392508853432107E-01  -2.356571844577141E-01  -2.317847503133597E-01
  -2.276346722648317E-01  -2.232091997695037E-01  -2.185118202145773E-01
  -2.135473351532760E-01  -2.083219339845178E-01  -2.028432639927891E-01
  -1.971204955417708E-01  -1.911643810875079E-01  -1.849873065455652E-01
  -1.786033334132313E-01  -1.720282299139778E-01  -1.652794892991952E-01
  -1.583763333141931E-01  -1.513396987143072E-01  -1.441922046062017E-01
  -1.369580982927366E-01  -1.296631772214885E-01  -1.223346845820252E-01
  -1.150011760706004E-01  -1.076923553491513E-01  -1.004388757746171E-01
  -9.327210607170269E-02  -8.622385777470673E-02  -7.932607247956283E-02
  -7.261046723411273E-02  -6.610813676085789E-02  -5.984911166045963E-02
  -5.386187229411697E-02  -4.817281869624585E-02  -4.280569763275072E-02
  -3.778098880043596E-02  -3.311525316443892E-02  -2.882044755573179E-02
  -2.490321090016488E-02  -2.136412882202925E-02  -1.819698485289376E-02
  -1.538800807103193E-02  -1.291512868384579E-02  -1.074725482596000E-02
  -8.848852976535343E-03  -7.198387666965261E-03  -5.778013833279194E-03
  -4.569301082031824E-03  -3.553452084981090E-03  -2.711524396158599E-03
  -2.024653049649883E-03  -1.474271098513197E-03  -1.042325070941458E-03
  -7.114821519324799E-04  -4.653257510552344E-04  -2.885359925523939E-04
  -1.670515669358746E-04  -8.820931730162129E-05  -4.085790274296897E-05
  -1.544189017045616E-05  -4.052678799937315E-06  -4.427635838591404E-07
   0.000000000000000E+00   0.000000000000000E+00   0.000000000000000E+00
   0.000000000000000E+00   0.000000000000000E+00   0.000000000000000E+00
   0.000000000000000E+00   0.000000000000000E+00   0.000000000000000E+00
   0.000000000000000E+00   0.000000000000000E+00   0.000000000000000E+00
   0.000000000000000E+00   0.000000000000000E+00   0.000000000000000E+00
   0.000000000000000E+00   0.000000000000000E+00   0.000000000000000E+00
   0.000000000000000E+00   0.000000000000000E+00   0.000000000000000E+00
   0.000000000000000E+00   0.000000000000000E+00   0.000000000000000E+00
   0.000000000000000E+00   0.000000000000000E+00   0.000000000000000E+00
   0.000000000000000E+00   0.000000000000000E+00   0.000000000000000E+00
   0.000000000000000E+00   0.000000000000000E+00   0.000000000000000E+00
   0.000000000000000E+00   0.000000000000000E+00   0.000000000000000E+00
   0.000000000000000E+00   0.000000000000000E+00   0.000000000000000E+00
   0.000000000000000E+00   0.000000000000000E+00   0.000000000000000E+00
   0.000000000000000E+00   0.000000000000000E+00   0.000000000000000E+00
   0.000000000000000E+00   0.000000000000000E+00   0.000000000000000E+00
   0.000000000000000E+00   0.000000000000000E+00   0.000000000000000E+00
   0.000000000000000E+00   0.000000000000000E+00   0.000000000000000E+00
   0.000000000000000E+00   0.000000000000000E+00   0.000000000000000E+00
   0.000000000000000E+00   0.000000000000000E+00   0.000000000000000E+00
   0.000000000000000E+00   0.000000000000000E+00   0.000000000000000E+00
   0.000000000000000E+00   0.000000000000000E+00   0.000000000000000E+00
   0.000000000000000E+00   0.000000000000000E+00   0.000000000000000E+00
   0.000000000000000E+00   0.000000000000000E+00   0.000000000000000E+00
   0.000000000000000E+00   0.000000000000000E+00   0.000000000000000E+00
   0.000000000000000E+00   0.000000000000000E+00   0.000000000000000E+00
   0.000000000000000E+00   0.000000000000000E+00   0.000000000000000E+00
   0.000000000000000E+00   0.000000000000000E+00   0.000000000000000E+00
   0.000000000000000E+00   0.000000000000000E+00   0.000000000000000E+00
   0.000000000000000E+00   0.000000000000000E+00   0.000000000000000E+00
   0.000000000000000E+00   0.000000000000000E+00   0.000000000000000E+00
   0.000000000000000E+00   0.000000000000000E+00   0.000000000000000E+00
   0.000000000000000E+00   0.000000000000000E+00   0.000000000000000E+00
   0.000000000000000E+00   0.000000000000000E+00   0.000000000000000E+00
   0.000000000000000E+00   0.000000000000000E+00   0.000000000000000E+00
   0.000000000000000E+00   0.000000000000000E+00   0.000000000000000E+00
   0.000000000000000E+00   0.000000000000000E+00   0.000000000000000E+00
   0.000000000000000E+00   0.000000000000000E+00   0.000000000000000E+00
   0.000000000000000E+00   0.000000000000000E+00   0.000000000000000E+00
   0.000000000000000E+00   0.000000000000000E+00   0.000000000000000E+00
   0.000000000000000E+00   0.000000000000000E+00   0.000000000000000E+00
   0.000000000000000E+00   0.000000000000000E+00   0.000000000000000E+00
   0.000000000000000E+00   0.000000000000000E+00   0.000000000000000E+00
   0.000000000000000E+00   0.000000000000000E+00   0.000000000000000E+00
   0.000000000000000E+00   0.000000000000000E+00   0.000000000000000E+00
   0.000000000000000E+00   0.000000000000000E+00   0.000000000000000E+00
   0.000000000000000E+00   0.000000000000000E+00   0.000000000000000E+00
   0.000000000000000E+00   0.000000000000000E+00   0.000000000000000E+00
   0.000000000000000E+00   0.000000000000000E+00   0.000000000000000E+00
   0.000000000000000E+00   0.000000000000000E+00   0.000000000000000E+00
   0.000000000000000E+00   0.000000000000000E+00   0.000000000000000E+00
   0.000000000000000E+00   0.000000000000000E+00   0.000000000000000E+00
   0.000000000000000E+00   0.000000000000000E+00   0.000000000000000E+00
   0.000000000000000E+00   0.000000000000000E+00   0.000000000000000E+00
   0.000000000000000E+00   0.000000000000000E+00   0.000000000000000E+00
   0.000000000000000E+00   0.000000000000000E+00   0.000000000000000E+00
   0.000000000000000E+00   0.000000000000000E+00   0.000000000000000E+00
   0.000000000000000E+00   0.000000000000000E+00   0.000000000000000E+00
   0.000000000000000E+00   0.000000000000000E+00   0.000000000000000E+00
   0.000000000000000E+00   0.000000000000000E+00   0.000000000000000E+00
   0.000000000000000E+00   0.000000000000000E+00   0.000000000000000E+00
   0.000000000000000E+00   0.000000000000000E+00   0.000000000000000E+00
   0.000000000000000E+00   0.000000000000000E+00   0.000000000000000E+00
   0.000000000000000E+00   0.000000000000000E+00   0.000000000000000E+00
   0.000000000000000E+00   0.000000000000000E+00   0.000000000000000E+00
   0.000000000000000E+00   0.000000000000000E+00   0.000000000000000E+00
   0.000000000000000E+00   0.000000000000000E+00   0.000000000000000E+00
   0.000000000000000E+00   0.000000000000000E+00   0.000000000000000E+00
   0.000000000000000E+00   0.000000000000000E+00   0.000000000000000E+00
   0.000000000000000E+00   0.000000000000000E+00   0.000000000000000E+00
   0.000000000000000E+00   0.000000000000000E+00   0.000000000000000E+00
   0.000000000000000E+00   0.000000000000000E+00   0.000000000000000E+00
   0.000000000000000E+00   0.000000000000000E+00   0.000000000000000E+00
   0.000000000000000E+00   0.000000000000000E+00   0.000000000000000E+00
   0.000000000000000E+00   0.000000000000000E+00   0.000000000000000E+00
   0.000000000000000E+00   0.000000000000000E+00   0.000000000000000E+00
   0.000000000000000E+00   0.000000000000000E+00   0.000000000000000E+00
   0.000000000000000E+00   0.000000000000000E+00   0.000000000000000E+00
   0.000000000000000E+00   0.000000000000000E+00   0.000000000000000E+00
   0.000000000000000E+00   0.000000000000000E+00   0.000000000000000E+00
   0.000000000000000E+00   0.000000000000000E+00   0.000000000000000E+00
   0.000000000000000E+00   0.000000000000000E+00   0.000000000000000E+00
   0.000000000000000E+00   0.000000000000000E+00   0.000000000000000E+00
   0.000000000000000E+00   0.000000000000000E+00   0.000000000000000E+00
   0.000000000000000E+00   0.000000000000000E+00   0.000000000000000E+00
   0.000000000000000E+00   0.000000000000000E+00   0.000000000000000E+00
   0.000000000000000E+00   0.000000000000000E+00   0.000000000000000E+00
   0.000000000000000E+00   0.000000000000000E+00   0.000000000000000E+00
   0.000000000000000E+00   0.000000000000000E+00   0.000000000000000E+00
   0.000000000000000E+00   0.000000000000000E+00   0.000000000000000E+00
   0.000000000000000E+00   0.000000000000000E+00   0.000000000000000E+00
   0.000000000000000E+00   0.000000000000000E+00   0.000000000000000E+00
   0.000000000000000E+00   0.000000000000000E+00   0.000000000000000E+00
   0.000000000000000E+00   0.000000000000000E+00   0.000000000000000E+00
   0.000000000000000E+00   0.000000000000000E+00   0.000000000000000E+00
   0.000000000000000E+00   0.000000000000000E+00   0.000000000000000E+00
   0.000000000000000E+00   0.000000000000000E+00   0.000000000000000E+00
   0.000000000000000E+00   0.000000000000000E+00   0.000000000000000E+00
   0.000000000000000E+00   0.000000000000000E+00   0.000000000000000E+00
   0.000000000000000E+00   0.000000000000000E+00   0.000000000000000E+00
   0.000000000000000E+00   0.000000000000000E+00   0.000000000000000E+00
   0.000000000000000E+00   0.000000000000000E+00   0.000000000000000E+00
   0.000000000000000E+00   0.000000000000000E+00   0.000000000000000E+00
   0.000000000000000E+00   0.000000000000000E+00   0.000000000000000E+00
   0.000000000000000E+00   0.000000000000000E+00   0.000000000000000E+00
   0.000000000000000E+00   0.000000000000000E+00
      </PP_QIJL.2.2.0>
      <PP_QIJL.2.3.1 first_index="2" second_index="3" composite_index="5" angular_momentum="1" size="1211">
   1.751325183884355E-14   1.818246816655896E-14   1.887725658660750E-14
   1.959859425970493E-14   2.034749568582938E-14   2.112501413102895E-14
   2.193224310875080E-14   2.277031791777462E-14   2.364041723891347E-14
   2.454376479272833E-14   2.548163106058626E-14   2.645533507148449E-14
   2.746624625715225E-14   2.851578637803972E-14   2.960543152290331E-14
   3.073671418479815E-14   3.191122541639938E-14   3.313061706768206E-14
   3.439660410910724E-14   3.571096704358228E-14   3.707555441058577E-14
   3.849228538598124E-14   3.996315248117438E-14   4.149022434541035E-14
   4.307564867515318E-14   4.472165523463704E-14   4.643055899184032E-14
   4.820476337429048E-14   5.004676364927989E-14   5.195915043324730E-14
   5.394461333525833E-14   5.600594473971173E-14   5.814604373359014E-14
   6.036792018377867E-14   6.267469897018664E-14   6.506962438062415E-14
   6.755606467361683E-14   7.013751681557438E-14   7.281761139897557E-14
   7.560011774848787E-14   7.848894922220019E-14   8.148816871542833E-14
   8.460199437483076E-14   8.783480553087228E-14   9.119114885697965E-14
   9.467574476404930E-14   9.829349403930349E-14   1.020494847388299E-13
   1.059489993434985E-13   1.099975221883214E-13   1.142007471757015E-13
   1.185645857834217E-13   1.230951753786344E-13   1.277988878495445E-13
   1.326823385669289E-13   1.377523956880895E-13   1.430161898163323E-13
   1.484811240295524E-13   1.541548842920323E-13   1.600454502640966E-13
   1.661611065248217E-13   1.725104542235919E-13   1.791024231768820E-13
   1.859462844272827E-13   1.930516632824337E-13   2.004285528521951E-13
   2.080873281031065E-13   2.160387604498928E-13   2.242940329045395E-13
   2.328647558042485E-13   2.417629831403838E-13   2.510012295113853E-13
   2.605924877234830E-13   2.705502470639716E-13   2.808885122727447E-13
   2.916218232387644E-13   3.027652754491764E-13   3.143345412198265E-13
   3.263458917370347E-13   3.388162199416349E-13   3.517630642874498E-13
   3.652046334076356E-13   3.791598317235697E-13   3.936482860323060E-13
   4.086903731099958E-13   4.243072483700791E-13   4.405208756165740E-13
   4.573540579342919E-13   4.748304697594308E-13   4.929746901756549E-13
   5.118122374824729E-13   5.313696050845530E-13   5.516742987524364E-13
   5.727548753070552E-13   5.946409827824717E-13   6.173634021232992E-13
   6.409540904754810E-13   6.654462261312878E-13   6.908742551917542E-13
   7.172739400121865E-13   7.446824094988547E-13   7.731382113276377E-13
   8.026813661580375E-13   8.333534239188200E-13   8.651975222444538E-13
   8.982584471444968E-13   9.325826959913068E-13   9.682185429146224E-13
   1.005216106695006E-12   1.043627421251641E-12   1.083506508823580E-12
   1.124909455947424E-12   1.167894492338245E-12   1.212522072784707E-12
   1.258854962173576E-12   1.306958323763155E-12   1.356899810829855E-12
   1.408749661816751E-12   1.462580799117949E-12   1.518468931637715E-12
   1.576492661268569E-12   1.636733593438144E-12   1.699276451880240E-12
   1.764209197791528E-12   1.831623153541461E-12   1.901613131109366E-12
   1.974277565429410E-12   2.049718652830913E-12   2.128042494768757E-12
   2.209359247046026E-12   2.293783274738701E-12   2.381433313040389E-12
   2.472432634253207E-12   2.566909221159739E-12   2.664995947019904E-12
   2.766830762445792E-12   2.872556889417426E-12   2.982323022712237E-12
   3.096283539031522E-12   3.214598714118118E-12   3.337434948170467E-12
   3.464964999870296E-12   3.597368229352911E-12   3.734830850461870E-12
   3.877546192642851E-12   4.025714972844926E-12   4.179545577811783E-12
   4.339254357159865E-12   4.505065927655536E-12   4.677213489119389E-12
   4.855939152401766E-12   5.041494279890950E-12   5.234139839032837E-12
   5.434146769359274E-12   5.641796363541348E-12   5.857380663003332E-12
   6.081202868653974E-12   6.313577767312575E-12   6.554832174429637E-12
   6.805305393724828E-12   7.065349694388472E-12   7.335330806518019E-12
   7.615628435486002E-12   7.906636795963073E-12   8.208765166347189E-12
   8.522438464378296E-12   8.848097844748997E-12   9.186201319550430E-12
   9.537224402427078E-12   9.901660777345927E-12   1.028002299292028E-11
   1.067284318326566E-11   1.108067381640047E-11   1.150408847124476E-11
   1.194368264430988E-11   1.240007458721264E-11   1.287390617619356E-11
   1.336584381486010E-11   1.387657937142617E-11   1.440683115176526E-11
   1.495734490964547E-11   1.552889489556832E-11   1.612228494568505E-11
   1.673834961232297E-11   1.737795533771147E-11   1.804200167255785E-11
   1.873142254118836E-11   1.944718755503166E-11   2.019030337629371E-11
   2.096181513374148E-11   2.176280789258560E-11   2.259440818053164E-11
   2.345778557214319E-11   2.435415433374758E-11   2.528477513119668E-11
   2.625095680288358E-11   2.725405820051128E-11   2.829549010019920E-11
   2.937671718661774E-11   3.049926011294065E-11   3.166469763951079E-11
   3.287466885423083E-11   3.413087547779695E-11   3.543508425702170E-11
   3.678912944961005E-11   3.819491540388237E-11   3.965441923707597E-11
   4.116969361598736E-11   4.274286964386960E-11   4.437615985764391E-11
   4.607186133963859E-11   4.783235894823642E-11   4.966012867196866E-11
   5.155774111177707E-11   5.352786509633988E-11   5.557327143554451E-11
   5.769683681739109E-11   5.990154785380064E-11   6.219050528102360E-11
   6.456692832055390E-11   6.703415920667992E-11   6.959566788704569E-11
   7.225505690282534E-11   7.501606645538099E-11   7.788257966652778E-11
   8.085862803980012E-11   8.394839713040868E-11   8.715623243185267E-11
   9.048664548747255E-11   9.394432023553861E-11   9.753411959679257E-11
   1.012610923137186E-10   1.051304800511488E-10   1.091477247682010E-10
   1.133184763719120E-10   1.176486006633256E-10   1.221441875872241E-10
   1.268115597970900E-10   1.316572815473542E-10   1.366881679254357E-10
   1.419112944365485E-10   1.473340069547710E-10   1.529639320543556E-10
   1.588089877358221E-10   1.648773945619150E-10   1.711776872190829E-10
   1.777187265207482E-10   1.845097118692397E-10   1.915601941939215E-10
   1.988800893837113E-10   2.064796922328783E-10   2.143696909197384E-10
   2.225611820386035E-10   2.310656862061324E-10   2.398951642640273E-10
   2.490620341008637E-10   2.585791881167170E-10   2.684600113551378E-10
   2.787184003279888E-10   2.893687825596107E-10   3.004261368778027E-10
   3.119060144801637E-10   3.238245608054099E-10   3.361985382404387E-10
   3.490453496950693E-10   3.623830630776133E-10   3.762304367057036E-10
   3.906069456881122E-10   4.055328093146674E-10   4.210290194927851E-10
   4.371173702706079E-10   4.538204884882817E-10   4.711618656004600E-10
   4.891658907148091E-10   5.078578848929710E-10   5.272641367622165E-10
   5.474119394878926E-10   5.683296291586385E-10   5.900466246383697E-10
   6.125934689410786E-10   6.360018721866239E-10   6.603047561979431E-10
   6.855363008023914E-10   7.117319919023321E-10   7.389286713825883E-10
   7.671645889249266E-10   7.964794558024755E-10   8.269145007296932E-10
   8.585125278464668E-10   8.913179769178753E-10   9.253769858342693E-10
   9.607374554995911E-10   9.974491171991661E-10   1.035563602541726E-09
   1.075134516074035E-09   1.116217510670205E-09   1.158870365801781E-09
   1.203153068798617E-09   1.249127899214868E-09   1.296859516418729E-09
   1.346415050529089E-09   1.397864196827034E-09   1.451279313774916E-09
   1.506735524780897E-09   1.564310823852049E-09   1.624086185284592E-09
   1.686145677545575E-09   1.750576581506096E-09   1.817469513192398E-09
   1.886918551227443E-09   1.959021369142175E-09   2.033879372742594E-09
   2.111597842725776E-09   2.192286082745440E-09   2.276057573135303E-09
   2.363030130506333E-09   2.453326073442480E-09   2.547072394527764E-09
   2.644400938946758E-09   2.745448589909598E-09   2.850357461162255E-09
   2.959275096852872E-09   3.072354679035176E-09   3.189755243100822E-09
   3.311641901443627E-09   3.438186075670263E-09   3.569565737683858E-09
   3.705965659979724E-09   3.847577675505070E-09   3.994600947448161E-09
   4.147242249336433E-09   4.305716255837254E-09   4.470245844670548E-09
   4.641062410057652E-09   4.818406188147290E-09   5.002526594876393E-09
   5.193682576740617E-09   5.392142974968226E-09   5.598186903609147E-09
   5.812104142071072E-09   6.034195542654632E-09   6.264773453660500E-09
   6.504162158663830E-09   6.752698332573420E-09   7.010731515117090E-09
   7.278624602419184E-09   7.556754357361199E-09   7.845511939443622E-09
   8.145303454893779E-09   8.456550527793399E-09   8.779690893029153E-09
   9.115179011899623E-09   9.463486711244863E-09   9.825103846996962E-09
   1.020053899308480E-08   1.059032015666192E-08   1.099499552066283E-08
   1.141513421473246E-08   1.185132711561248E-08   1.230418767811008E-08
   1.277435279781788E-08   1.326248370679759E-08   1.376926690348763E-08
   1.429541511814176E-08   1.484166831515645E-08   1.540879473369667E-08
   1.599759196808267E-08   1.660888808945787E-08   1.724354281031433E-08
   1.790244869351358E-08   1.858653240750300E-08   1.929675602949203E-08
   2.003411839842162E-08   2.079965651962855E-08   2.159444702317986E-08
   2.241960767792852E-08   2.327629896341784E-08   2.416572570184653E-08
   2.508913875238778E-08   2.604783677024497E-08   2.704316803291797E-08
   2.807653233624634E-08   2.914938296289695E-08   3.026322872606264E-08
   3.141963609124575E-08   3.262023137910944E-08   3.386670305249481E-08
   3.516080409081743E-08   3.650435445518403E-08   3.789924364769295E-08
   3.934743336851800E-08   4.085096027451087E-08   4.241193884319963E-08
   4.403256434621145E-08   4.571511593629842E-08   4.746195985230681E-08
   4.927555274659606E-08   5.115844513958392E-08   5.311328500627563E-08
   5.514282149981848E-08   5.724990881731607E-08   5.943751021333756E-08
   6.170870216676229E-08   6.406667870681937E-08   6.651475590440174E-08
   6.905637653496901E-08   7.169511491959442E-08   7.443468195095738E-08
   7.727893031135181E-08   8.023185989004028E-08   8.329762340757012E-08
   8.648053225495885E-08   8.978506255595245E-08   9.321586146088076E-08
   9.677775368095475E-08   1.004757482721894E-07   1.043150456784882E-07
   1.083010450437852E-07   1.124393518035244E-07   1.167357855661449E-07
   1.211963882956465E-07   1.258274328067379E-07   1.306354315845027E-07
   1.356271459409804E-07   1.408095955215300E-07   1.461900681743304E-07
   1.517761301968950E-07   1.575756369739875E-07   1.635967440218970E-07
   1.698479184545855E-07   1.763379508878199E-07   1.830759677980156E-07
   1.900714443531528E-07   1.973342177337971E-07   2.048745009629376E-07
   2.127028972640702E-07   2.208304149677051E-07   2.292684829872253E-07
   2.380289668858532E-07   2.471241855572838E-07   2.565669285434203E-07
   2.663704740135397E-07   2.765486074301335E-07   2.871156409276556E-07
   2.980864334313812E-07   3.094764115446428E-07   3.213015912337761E-07
   3.335786003412225E-07   3.463247019584177E-07   3.595578186912762E-07
   3.732965578523502E-07   3.875602376150546E-07   4.023689141666169E-07
   4.177434098979955E-07   4.337053426702136E-07   4.502771561982741E-07
   4.674821515953258E-07   4.853445201212748E-07   5.038893771819091E-07
   5.231427976261797E-07   5.431318523912879E-07   5.638846465468758E-07
   5.854303587918274E-07   6.077992824590015E-07   6.310228680855787E-07
   6.551337676086678E-07   6.801658802481104E-07   7.061544001410988E-07
   7.331358657951202E-07   7.611482114289349E-07   7.902308202732854E-07
   8.204245799064051E-07   8.517719397017665E-07   8.843169704685179E-07
   9.181054263687173E-07   9.531848091975164E-07   9.896044351171187E-07
   1.027415503937565E-06   1.066671171041788E-06   1.107426622055188E-06
   1.149739150366057E-06   1.193668237602657E-06   1.239275637182961E-06
   1.286625461051226E-06   1.335784269725450E-06   1.386821165780089E-06
   1.439807890895734E-06   1.494818926611683E-06   1.551931598922551E-06
   1.611226186865303E-06   1.672786035248933E-06   1.736697671683851E-06
   1.803050928076883E-06   1.871939066759015E-06   1.943458911425268E-06
   2.017710983068293E-06   2.094799641096365E-06   2.174833229833240E-06
   2.257924230604577E-06   2.344189419625349E-06   2.433750031905544E-06
   2.526731931407448E-06   2.623265787690087E-06   2.723487259286602E-06
   2.827537184076277E-06   2.935561776909468E-06   3.047712834769175E-06
   3.164147949750209E-06   3.285030730157639E-06   3.410531030029562E-06
   3.540825187409123E-06   3.676096271694508E-06   3.816534340413354E-06
   3.962336705782450E-06   4.113708211421046E-06   4.270861519607183E-06
   4.434017409473005E-06   4.603405086562392E-06   4.779262504175306E-06
   4.961836696950567E-06   5.151384127150958E-06   5.348171044134704E-06
   5.552473857510944E-06   5.764579524502786E-06   5.984785952055415E-06
   6.213402414245139E-06   6.450749985580628E-06   6.697161990787073E-06
   6.952984471710249E-06   7.218576671976009E-06   7.494311540097169E-06
   7.780576251708375E-06   8.077772751667618E-06   8.386318316773558E-06
   8.706646139873449E-06   9.039205936185198E-06   9.384464572666249E-06
   9.742906721296858E-06   1.011503553720290E-05   1.050137336253421E-05
   1.090246245709197E-05   1.131886575671050E-05   1.175116766044029E-05
   1.219997484762472E-05   1.266591712600660E-05   1.314964831202324E-05
   1.365184714451998E-05   1.417321823314012E-05   1.471449304269941E-05
   1.527643091490104E-05   1.585982012880852E-05   1.646547900153741E-05
   1.709425703066761E-05   1.774703607998132E-05   1.842473161012139E-05
   1.912829395589284E-05   1.985870965195278E-05   2.061700280870766E-05
   2.140423654031171E-05   2.222151444673065E-05   2.306998215189973E-05
   2.395082890007701E-05   2.486528921259916E-05   2.581464460728477E-05
   2.680022538286075E-05   2.782341247082787E-05   2.888563935731720E-05
   2.998839407754839E-05   3.113322128560941E-05   3.232172440239278E-05
   3.355556784459674E-05   3.483647933783167E-05   3.616625231698923E-05
   3.754674841710333E-05   3.897990005812200E-05   4.046771312706911E-05
   4.201226976123159E-05   4.361573123615529E-05   4.528034096233306E-05
   4.700842759464674E-05   4.880240825875255E-05   5.066479189875696E-05
   5.259818275069544E-05   5.460528394647431E-05   5.668890125313104E-05
   5.885194695240733E-05   6.109744386585530E-05   6.342852953085020E-05
   6.584846053308634E-05   6.836061700134742E-05   7.096850727053356E-05
   7.367577271914746E-05   7.648619278768779E-05   7.940369018456599E-05
   8.243233628649694E-05   8.557635674044344E-05   8.884013727457881E-05
   9.222822972585718E-05   9.574535829218153E-05   9.939642601734009E-05
   1.031865215172413E-04   1.071209259562240E-04   1.112051202825744E-04
   1.154447927326669E-04   1.198458466134943E-04   1.244144083736883E-04
   1.291568359734834E-04   1.340797275644321E-04   1.391899304900765E-04
   1.444945506191335E-04   1.500009620231772E-04   1.557168170112121E-04
   1.616500565339214E-04   1.678089209708583E-04   1.742019613142532E-04
   1.808380507636282E-04   1.877263967457951E-04   1.948765533754178E-04
   2.022984343717629E-04   2.100023264477257E-04   2.179989031879299E-04
   2.262992394330248E-04   2.349148261880616E-04   2.438575860732982E-04
   2.531398893364182E-04   2.627745704457780E-04   2.727749452848825E-04
   2.831548289689852E-04   2.939285543053348E-04   3.051109909192991E-04
   3.167175650692753E-04   3.287642801740081E-04   3.412677380766789E-04
   3.542451610709042E-04   3.677144147144713E-04   3.816940314574890E-04
   3.962032351124342E-04   4.112619661943204E-04   4.268909081601391E-04
   4.431115145774900E-04   4.599460372532413E-04   4.774175553539183E-04
   4.955500055503905E-04   5.143682132204053E-04   5.338979247433147E-04
   5.541658409224325E-04   5.751996515713057E-04   5.970280713011049E-04
   6.196808765474561E-04   6.431889438758539E-04   6.675842896058547E-04
   6.929001107952547E-04   7.191708276263659E-04   7.464321272376120E-04
   7.747210090445186E-04   8.040758315952995E-04   8.345363610071352E-04
   8.661438210301809E-04   8.989409447874721E-04   9.329720282396186E-04
   9.682829854242315E-04   1.004921405521007E-03   1.042936611793975E-03
   1.082379722463703E-03   1.123303713562569E-03   1.165763483827379E-03
   1.209815921684083E-03   1.255519974380020E-03   1.302936719319900E-03
   1.352129437661917E-03   1.403163690231155E-03   1.456107395807633E-03
   1.511030911846525E-03   1.568007117688465E-03   1.627111500317569E-03
   1.688422242724943E-03   1.752020314935124E-03   1.817989567752259E-03
   1.886416829282742E-03   1.957392004289629E-03   2.031008176433642E-03
   2.107361713454217E-03   2.186552375342354E-03   2.268683425555823E-03
   2.353861745324647E-03   2.442197951092922E-03   2.533806515140277E-03
   2.628805889422966E-03   2.727318632671642E-03   2.829471540778540E-03
   2.935395780502812E-03   3.045227026517969E-03   3.159105601819633E-03
   3.277176621506724E-03   3.399590139941759E-03   3.526501301289463E-03
   3.658070493425012E-03   3.794463505193940E-03   3.935851686997472E-03
   4.082412114665662E-03   4.234327756570110E-03   4.391787643916146E-03
   4.554987044140139E-03   4.724127637324639E-03   4.899417695527273E-03
   5.081072264903257E-03   5.269313350483370E-03   5.464370103448801E-03
   5.666479010724477E-03   5.875884086688471E-03   6.092837066771425E-03
   6.317597602693950E-03   6.550433459060374E-03   6.791620710998988E-03
   7.041443942504565E-03   7.300196445105390E-03   7.568180416439994E-03
   7.845707158287744E-03   8.133097273557072E-03   8.430680861687677E-03
   8.738797711876372E-03   9.057797493484284E-03   9.388039942927537E-03
   9.729895046296910E-03   1.008374321688809E-02   1.044997546675940E-02
   1.082899357136452E-02   1.122121022623113E-02   1.162704919458151E-02
   1.204694544470407E-02   1.248134527579940E-02   1.293070643093089E-02
   1.339549819560992E-02   1.387620148044486E-02   1.437330888617061E-02
   1.488732474926244E-02   1.541876516621612E-02   1.596815799444751E-02
   1.653604282763370E-02   1.712297094317437E-02   1.772950521930682E-02
   1.835622001925476E-02   1.900370103962721E-02   1.967254512012009E-02
   2.036336001139401E-02   2.107676409782237E-02   2.181338607161463E-02
   2.257386455462049E-02   2.335884766392223E-02   2.416899251710750E-02
   2.500496467290162E-02   2.586743750261588E-02   2.675709148763544E-02
   2.767461343794367E-02   2.862069562643309E-02   2.959603483351592E-02
   3.060133129630032E-02   3.163728755634582E-02   3.270460719976970E-02
   3.380399348321864E-02   3.493614783897842E-02   3.610176825224973E-02
   3.730154750337505E-02   3.853617126757873E-02   3.980631606455388E-02
   4.111264705002666E-02   4.245581564123890E-02   4.383645696811041E-02
   4.525518714170649E-02   4.671260033150226E-02   4.820926564286242E-02
   4.974572378609360E-02   5.132248352842878E-02   5.294001792034886E-02
   5.459876028774090E-02   5.629909998157268E-02   5.804137787699123E-02
   5.982588161408460E-02   6.165284057296115E-02   6.352242057631025E-02
   6.543471831325379E-02   6.738975547904300E-02   6.938747262606054E-02
   7.142772272264103E-02   7.351026441743112E-02   7.563475500843110E-02
   7.780074311744725E-02   8.000766107251818E-02   8.225481700293757E-02
   8.454138665380002E-02   8.686640492960707E-02   8.922875717933708E-02
   9.162717023860330E-02   9.406020324806301E-02   9.652623827113679E-02
   9.902347073839667E-02   1.015498997506526E-01   1.041033182778848E-01
   1.066813032967247E-01   1.092812059151789E-01   1.119001415397988E-01
   1.145349801474461E-01   1.171823367312865E-01   1.198385619986098E-01
   1.224997334065336E-01   1.251616466306306E-01   1.278198075709461E-01
   1.304694250097932E-01   1.331054040460450E-01   1.357223404413515E-01
   1.383145160247833E-01   1.408758953136842E-01   1.434001235200194E-01
   1.458805261230446E-01   1.483101102006011E-01   1.506815677226332E-01
   1.529872810213977E-01   1.552193306631474E-01   1.573695059555432E-01
   1.594293183334274E-01   1.613900178725981E-01   1.632426131864643E-01
   1.649778949636155E-01   1.665864634049443E-01   1.680587598165501E-01
   1.693851026087588E-01   1.705557279415879E-01   1.715608352423509E-01
   1.723906378011229E-01   1.730354186238168E-01   1.734855916899552E-01
   1.737317687220580E-01   1.737648315251817E-01   1.735760098977246E-01
   1.731569650473671E-01   1.724998783681969E-01   1.715975453459007E-01
   1.704434742567480E-01   1.690319892123020E-01   1.673583369749346E-01
   1.654187968289030E-01   1.632107926378800E-01   1.607330060524554E-01
   1.579854896506467E-01   1.549697786016056E-01   1.516889992385538E-01
   1.481479727132013E-01   1.443533116825448E-01   1.403135077528162E-01
   1.360390071778869E-01   1.315422720847766E-01   1.268378242821983E-01
   1.219422685051484E-01   1.168742917663859E-01   1.116546353321944E-01
   1.063060357239789E-01   1.008531310792068E-01   9.532232919594046E-02
   8.974163364690718E-02   8.414042449477457E-02   7.854919038374544E-02
   7.299920913831148E-02   6.752217448260309E-02   6.214976711803523E-02
   5.691316917719400E-02   5.184252202138659E-02   4.696632847996527E-02
   4.231080195084407E-02   3.789916630015448E-02   3.375091221724003E-02
   2.988101759660569E-02   2.629914162255816E-02   2.300880450910932E-02
   2.000656727299063E-02   1.728122845727895E-02   1.481305733210780E-02
   1.257825580595323E-02   1.056679152307360E-02   8.771760124860140E-03
   7.184977495768519E-03   5.797044355151104E-03   4.597421965069570E-03
   3.574519833560275E-03   2.715796438543916E-03   2.007874150908140E-03
   1.436669691413983E-03   9.875416092941514E-04   6.454564129868556E-04
   3.951751065508213E-04   2.214619782592020E-04   1.093175380688094E-04
   4.423749435311652E-05   1.249958137458651E-05   1.479880341187512E-06
   0.000000000000000E+00   0.000000000000000E+00   0.000000000000000E+00
   0.000000000000000E+00   0.000000000000000E+00   0.000000000000000E+00
   0.000000000000000E+00   0.000000000000000E+00   0.000000000000000E+00
   0.000000000000000E+00   0.000000000000000E+00   0.000000000000000E+00
   0.000000000000000E+00   0.000000000000000E+00   0.000000000000000E+00
   0.000000000000000E+00   0.000000000000000E+00   0.000000000000000E+00
   0.000000000000000E+00   0.000000000000000E+00   0.000000000000000E+00
   0.000000000000000E+00   0.000000000000000E+00   0.000000000000000E+00
   0.000000000000000E+00   0.000000000000000E+00   0.000000000000000E+00
   0.000000000000000E+00   0.000000000000000E+00   0.000000000000000E+00
   0.000000000000000E+00   0.000000000000000E+00   0.000000000000000E+00
   0.000000000000000E+00   0.000000000000000E+00   0.000000000000000E+00
   0.000000000000000E+00   0.000000000000000E+00   0.000000000000000E+00
   0.000000000000000E+00   0.000000000000000E+00   0.000000000000000E+00
   0.000000000000000E+00   0.000000000000000E+00   0.000000000000000E+00
   0.000000000000000E+00   0.000000000000000E+00   0.000000000000000E+00
   0.000000000000000E+00   0.000000000000000E+00   0.000000000000000E+00
   0.000000000000000E+00   0.000000000000000E+00   0.000000000000000E+00
   0.000000000000000E+00   0.000000000000000E+00   0.000000000000000E+00
   0.000000000000000E+00   0.000000000000000E+00   0.000000000000000E+00
   0.000000000000000E+00   0.000000000000000E+00   0.000000000000000E+00
   0.000000000000000E+00   0.000000000000000E+00   0.000000000000000E+00
   0.000000000000000E+00   0.000000000000000E+00   0.000000000000000E+00
   0.000000000000000E+00   0.000000000000000E+00   0.000000000000000E+00
   0.000000000000000E+00   0.000000000000000E+00   0.000000000000000E+00
   0.000000000000000E+00   0.000000000000000E+00   0.000000000000000E+00
   0.000000000000000E+00   0.000000000000000E+00   0.000000000000000E+00
   0.000000000000000E+00   0.000000000000000E+00   0.000000000000000E+00
   0.000000000000000E+00   0.000000000000000E+00   0.000000000000000E+00
   0.000000000000000E+00   0.000000000000000E+00   0.000000000000000E+00
   0.000000000000000E+00   0.000000000000000E+00   0.000000000000000E+00
   0.000000000000000E+00   0.000000000000000E+00   0.000000000000000E+00
   0.000000000000000E+00   0.000000000000000E+00   0.000000000000000E+00
   0.000000000000000E+00   0.000000000000000E+00   0.000000000000000E+00
   0.000000000000000E+00   0.000000000000000E+00   0.000000000000000E+00
   0.000000000000000E+00   0.000000000000000E+00   0.000000000000000E+00
   0.000000000000000E+00   0.000000000000000E+00   0.000000000000000E+00
   0.000000000000000E+00   0.000000000000000E+00   0.000000000000000E+00
   0.000000000000000E+00   0.000000000000000E+00   0.000000000000000E+00
   0.000000000000000E+00   0.000000000000000E+00   0.000000000000000E+00
   0.000000000000000E+00   0.000000000000000E+00   0.000000000000000E+00
   0.000000000000000E+00   0.000000000000000E+00   0.000000000000000E+00
   0.000000000000000E+00   0.000000000000000E+00   0.000000000000000E+00
   0.000000000000000E+00   0.000000000000000E+00   0.000000000000000E+00
   0.000000000000000E+00   0.000000000000000E+00   0.000000000000000E+00
   0.000000000000000E+00   0.000000000000000E+00   0.000000000000000E+00
   0.000000000000000E+00   0.000000000000000E+00   0.000000000000000E+00
   0.000000000000000E+00   0.000000000000000E+00   0.000000000000000E+00
   0.000000000000000E+00   0.000000000000000E+00   0.000000000000000E+00
   0.000000000000000E+00   0.000000000000000E+00   0.000000000000000E+00
   0.000000000000000E+00   0.000000000000000E+00   0.000000000000000E+00
   0.000000000000000E+00   0.000000000000000E+00   0.000000000000000E+00
   0.000000000000000E+00   0.000000000000000E+00   0.000000000000000E+00
   0.000000000000000E+00   0.000000000000000E+00   0.000000000000000E+00
   0.000000000000000E+00   0.000000000000000E+00   0.000000000000000E+00
   0.000000000000000E+00   0.000000000000000E+00   0.000000000000000E+00
   0.000000000000000E+00   0.000000000000000E+00   0.000000000000000E+00
   0.000000000000000E+00   0.000000000000000E+00   0.000000000000000E+00
   0.000000000000000E+00   0.000000000000000E+00   0.000000000000000E+00
   0.000000000000000E+00   0.000000000000000E+00   0.000000000000000E+00
   0.000000000000000E+00   0.000000000000000E+00   0.000000000000000E+00
   0.000000000000000E+00   0.000000000000000E+00   0.000000000000000E+00
   0.000000000000000E+00   0.000000000000000E+00   0.000000000000000E+00
   0.000000000000000E+00   0.000000000000000E+00   0.000000000000000E+00
   0.000000000000000E+00   0.000000000000000E+00   0.000000000000000E+00
   0.000000000000000E+00   0.000000000000000E+00   0.000000000000000E+00
   0.000000000000000E+00   0.000000000000000E+00   0.000000000000000E+00
   0.000000000000000E+00   0.000000000000000E+00   0.000000000000000E+00
   0.000000000000000E+00   0.000000000000000E+00   0.000000000000000E+00
   0.000000000000000E+00   0.000000000000000E+00   0.000000000000000E+00
   0.000000000000000E+00   0.000000000000000E+00   0.000000000000000E+00
   0.000000000000000E+00   0.000000000000000E+00   0.000000000000000E+00
   0.000000000000000E+00   0.000000000000000E+00   0.000000000000000E+00
   0.000000000000000E+00   0.000000000000000E+00   0.000000000000000E+00
   0.000000000000000E+00   0.000000000000000E+00   0.000000000000000E+00
   0.000000000000000E+00   0.000000000000000E+00   0.000000000000000E+00
   0.000000000000000E+00   0.000000000000000E+00   0.000000000000000E+00
   0.000000000000000E+00   0.000000000000000E+00   0.000000000000000E+00
   0.000000000000000E+00   0.000000000000000E+00   0.000000000000000E+00
   0.000000000000000E+00   0.000000000000000E+00   0.000000000000000E+00
   0.000000000000000E+00   0.000000000000000E+00   0.000000000000000E+00
   0.000000000000000E+00   0.000000000000000E+00   0.000000000000000E+00
   0.000000000000000E+00   0.000000000000000E+00   0.000000000000000E+00
   0.000000000000000E+00   0.000000000000000E+00   0.000000000000000E+00
   0.000000000000000E+00   0.000000000000000E+00   0.000000000000000E+00
   0.000000000000000E+00   0.000000000000000E+00   0.000000000000000E+00
   0.000000000000000E+00   0.000000000000000E+00   0.000000000000000E+00
   0.000000000000000E+00   0.000000000000000E+00   0.000000000000000E+00
   0.000000000000000E+00   0.000000000000000E+00   0.000000000000000E+00
   0.000000000000000E+00   0.000000000000000E+00   0.000000000000000E+00
   0.000000000000000E+00   0.000000000000000E+00   0.000000000000000E+00
   0.000000000000000E+00   0.000000000000000E+00   0.000000000000000E+00
   0.000000000000000E+00   0.000000000000000E+00   0.000000000000000E+00
   0.000000000000000E+00   0.000000000000000E+00   0.000000000000000E+00
   0.000000000000000E+00   0.000000000000000E+00   0.000000000000000E+00
   0.000000000000000E+00   0.000000000000000E+00   0.000000000000000E+00
   0.000000000000000E+00   0.000000000000000E+00   0.000000000000000E+00
   0.000000000000000E+00   0.000000000000000E+00   0.000000000000000E+00
   0.000000000000000E+00   0.000000000000000E+00   0.000000000000000E+00
   0.000000000000000E+00   0.000000000000000E+00   0.000000000000000E+00
   0.000000000000000E+00   0.000000000000000E+00   0.000000000000000E+00
   0.000000000000000E+00   0.000000000000000E+00   0.000000000000000E+00
   0.000000000000000E+00   0.000000000000000E+00   0.000000000000000E+00
   0.000000000000000E+00   0.000000000000000E+00   0.000000000000000E+00
   0.000000000000000E+00   0.000000000000000E+00   0.000000000000000E+00
   0.000000000000000E+00   0.000000000000000E+00
      </PP_QIJL.2.3.1>
      <PP_QIJL.2.4.1 first_index="2" second_index="4" composite_index="8" angular_momentum="1" size="1211">
   1.750986544727792E-14   1.817895237413552E-14   1.887360644865634E-14
   1.959480464261009E-14   2.034356125980889E-14   2.112092936263887E-14
   2.192800225310289E-14   2.276591501045657E-14   2.363584608760049E-14
   2.453901896847406E-14   2.547670388878098E-14   2.645021962246784E-14
   2.746093533646714E-14   2.851027251631396E-14   2.959970696534445E-14
   3.073077088028699E-14   3.190505500616668E-14   3.312421087355262E-14
   3.438995312129465E-14   3.570406190801737E-14   3.706838541576084E-14
   3.848484244929154E-14   3.995542513473769E-14   4.148220172134472E-14
   4.306731949029202E-14   4.471300777466027E-14   4.642158109479902E-14
   4.819544241350196E-14   5.003708651556927E-14   5.194910351651040E-14
   5.393418250532008E-14   5.599511532645309E-14   5.813480050631564E-14
   6.035624732979560E-14   6.266258007256557E-14   6.505704239510975E-14
   6.754300190465636E-14   7.012395489143017E-14   7.280353124588638E-14
   7.558549956384307E-14   7.847377244668882E-14   8.147241200412381E-14
   8.458563556717078E-14   8.781782161949138E-14   9.117351595535121E-14
   9.465743807289044E-14   9.827448781169683E-14   1.020297522440122E-13
   1.059285128292654E-13   1.099762528419962E-13   1.141786650836118E-13
   1.185416598888278E-13   1.230713734380500E-13   1.277741763873884E-13
   1.326566828284438E-13   1.377257595904616E-13   1.429885358979427E-13
   1.484524133972904E-13   1.541250765665942E-13   1.600145035231947E-13
   1.661289772442233E-13   1.724770972159050E-13   1.790677915280021E-13
   1.859103294304106E-13   1.930143343695722E-13   2.003897975230284E-13
   2.080470918511612E-13   2.159969866858778E-13   2.242506628767559E-13
   2.328197285159590E-13   2.417162352640239E-13   2.509526952994965E-13
   2.605420989162422E-13   2.704979327931873E-13   2.808341989621851E-13
   2.915654345006749E-13   3.027067319768448E-13   3.142737606760419E-13
   3.262827886382836E-13   3.387507055378728E-13   3.516950464372787E-13
   3.651340164487104E-13   3.790865163380536E-13   3.935721691071846E-13
   4.086113475920518E-13   4.242252031153272E-13   4.404356952339404E-13
   4.572656226233219E-13   4.747386551417928E-13   4.928793671202075E-13
   5.117132719236458E-13   5.312668578337882E-13   5.515676253024236E-13
   5.726441256284875E-13   5.945260011130320E-13   6.172440267485862E-13
   6.408301535015612E-13   6.653175532485569E-13   6.907406654297737E-13
   7.171352454851542E-13   7.445384151413456E-13   7.729887146202481E-13
   8.025261568425448E-13   8.331922837024569E-13   8.650302244928831E-13
   8.980847565630519E-13   9.324023682940519E-13   9.680313244807649E-13
   1.005021734212182E-12   1.043425621345565E-12   1.083296997673545E-12
   1.124691938887107E-12   1.167668663441258E-12   1.212287614434308E-12
   1.258611544615940E-12   1.306705604643572E-12   1.356637434711201E-12
   1.408477259679563E-12   1.462297987841389E-12   1.518175313460705E-12
   1.576187823230328E-12   1.636417106797350E-12   1.698947871511994E-12
   1.763868061561266E-12   1.831268981654949E-12   1.901245425437852E-12
   1.973895808808984E-12   2.049322308335090E-12   2.127631004953268E-12
   2.208932033164742E-12   2.293339735929597E-12   2.380972825480389E-12
   2.471954550280750E-12   2.566412868363791E-12   2.664480627294167E-12
   2.766295751006768E-12   2.872001433784955E-12   2.981746341651064E-12
   3.095684821452427E-12   3.213977117937051E-12   3.336789599124067E-12
   3.464294990286160E-12   3.596672616872855E-12   3.734108656716405E-12
   3.876796401874985E-12   4.024936530481388E-12   4.178737388979638E-12
   4.338415285146425E-12   4.504194792309426E-12   4.676309065190503E-12
   4.855000167817760E-12   5.040519413967898E-12   5.233127720617464E-12
   5.433095974900214E-12   5.640705415086672E-12   5.856248026121551E-12
   6.080026950275574E-12   6.312356913489074E-12   6.553564668006964E-12
   6.803989451927808E-12   7.063983466312972E-12   7.333912370527240E-12
   7.614155796507275E-12   7.905107882681305E-12   8.207177828291066E-12
   8.520790468895105E-12   8.846386873863809E-12   9.184424966705266E-12
   9.535380169095397E-12   9.899746069517745E-12   1.027803511745293E-11
   1.067077934409507E-11   1.107853111060758E-11   1.150186388497168E-11
   1.194137304851983E-11   1.239767673328792E-11   1.287141669136517E-11
   1.336325919746273E-11   1.387389598597175E-11   1.440404522382825E-11
   1.495445252055257E-11   1.552589197688527E-11   1.611916727349258E-11
   1.673511280127403E-11   1.737459483486123E-11   1.803851275095784E-11
   1.872780029323572E-11   1.944342688556421E-11   2.018639899542092E-11
   2.095776154940152E-11   2.175859940281772E-11   2.259003886545319E-11
   2.345324928561992E-11   2.434944469474545E-11   2.527988551480306E-11
   2.624588033098514E-11   2.724878773211550E-11   2.829001822138583E-11
   2.937103620010608E-11   3.049336202725791E-11   3.165857415774632E-11
   3.286831136236034E-11   3.412427503256039E-11   3.542823157333748E-11
   3.678201488750810E-11   3.818752895493759E-11   3.964675051032276E-11
   4.116173182329569E-11   4.273460358476186E-11   4.436757790353095E-11
   4.606295141745314E-11   4.782310852344053E-11   4.965052473091128E-11
   5.154777014337694E-11   5.351751307306789E-11   5.556252379367871E-11
   5.768567843651653E-11   5.988996303552519E-11   6.217847772687959E-11
   6.455444110905465E-11   6.702119476949855E-11   6.958220798428286E-11
   7.224108259733086E-11   7.500155808609325E-11   7.786751682079320E-11
   8.084298952463383E-11   8.393216094265562E-11   8.713937572720710E-11
   9.046914454831256E-11   9.392615043752969E-11   9.751525537421369E-11
   1.012415071234613E-10   1.051101463353392E-10   1.091266139153909E-10
   1.132965586767857E-10   1.176258452848645E-10   1.221205625052701E-10
   1.267870317672468E-10   1.316318160541626E-10   1.366617291337569E-10
   1.418838451410865E-10   1.473055085276629E-10   1.529343443907558E-10
   1.587782691974037E-10   1.648455019182081E-10   1.711445755865672E-10
   1.776843492996143E-10   1.844740206777284E-10   1.915231388001498E-10
   1.988416176348877E-10   2.064397499818078E-10   2.143282219485126E-10
   2.225181279793689E-10   2.310209864588241E-10   2.398487559109519E-10
   2.490138518180102E-10   2.585291640816708E-10   2.684080751514673E-10
   2.786644788459686E-10   2.893127998931415E-10   3.003680142173823E-10
   3.118456700017561E-10   3.237619095550559E-10   3.361334920144457E-10
   3.489778169156077E-10   3.623129486635457E-10   3.761576419384630E-10
   3.905313680724381E-10   4.054543424340025E-10   4.209475528591298E-10
   4.370327891686151E-10   4.537326738133755E-10   4.710706936907444E-10
   4.890712331765313E-10   5.077596084192882E-10   5.271621029450120E-10
   5.473060046223723E-10   5.682196440404281E-10   5.899324343528281E-10
   6.124749126445254E-10   6.358787828791695E-10   6.601769604876000E-10
   6.854036186601286E-10   7.115942364077271E-10   7.387856484597094E-10
   7.670160970680765E-10   7.963252857913972E-10   8.267544353338398E-10
   8.583463415179071E-10   8.911454354724023E-10   9.251978461202517E-10
   9.605514650541009E-10   9.972560138908842E-10   1.035363114200124E-09
   1.074926360104293E-09   1.116001393653326E-09   1.158645983079322E-09
   1.202920104041445E-09   1.248886023975323E-09   1.296608389665555E-09
   1.346154318164466E-09   1.397593491185011E-09   1.450998253100544E-09
   1.506443712689292E-09   1.564007848766624E-09   1.623771619853649E-09
   1.685819078036412E-09   1.750237487175764E-09   1.817117445634205E-09
   1.886553013692251E-09   1.958641845833533E-09   2.033485328084671E-09
   2.111188720603058E-09   2.191861305713072E-09   2.275616541598952E-09
   2.362572221870396E-09   2.452850641225370E-09   2.546578767443036E-09
   2.643888419948716E-09   2.744916455202015E-09   2.849804959168762E-09
   2.958701447147529E-09   3.071759071231664E-09   3.189136835698651E-09
   3.310999820629674E-09   3.437519414073903E-09   3.568873553083871E-09
   3.705246973961098E-09   3.846831472063727E-09   3.993826171541587E-09
   4.146437805378084E-09   4.304881006132535E-09   4.469378607792070E-09
   4.640161959157402E-09   4.817471249203229E-09   5.001555844870885E-09
   5.192674641768053E-09   5.391096428269029E-09   5.597100263527264E-09
   5.810975869931945E-09   6.033024040560517E-09   6.263557062199868E-09
   6.502899154531467E-09   6.751386926097682E-09   7.009369847690669E-09
   7.277210743829547E-09   7.555286303016742E-09   7.843987607491383E-09
   8.143720683224450E-09   8.454907070929118E-09   8.777984418889474E-09
   9.113407098440736E-09   9.461646842967127E-09   9.823193411315407E-09
   1.019855527655721E-08   1.058826034106873E-08   1.099285667893303E-08
   1.141291330670921E-08   1.184902098365214E-08   1.230179304250793E-08
   1.277186625205351E-08   1.325990171259284E-08   1.376658578566947E-08
   1.429263105930225E-08   1.483877735010162E-08   1.540579274367580E-08
   1.599447467478910E-08   1.660565104879208E-08   1.724018140589968E-08
   1.789895812995462E-08   1.858290770337603E-08   1.929299201005679E-08
   2.003020968804307E-08   2.079559753389654E-08   2.159023196071470E-08
   2.241523051185933E-08   2.327175343252049E-08   2.416100530132699E-08
   2.508423672429651E-08   2.604274609350704E-08   2.703788141296311E-08
   2.807104219422237E-08   2.914368142444938E-08   3.025730760966255E-08
   3.141348689604696E-08   3.261384527231572E-08   3.386007085621644E-08
   3.515391626839604E-08   3.649720109696327E-08   3.789181445621202E-08
   3.933971764310349E-08   4.084294689524208E-08   4.240361625422051E-08
   4.402392053836193E-08   4.570613842903614E-08   4.745263567488926E-08
   4.926586841849175E-08   5.114838665007967E-08   5.310283779324582E-08
   5.513197042762034E-08   5.723863815377362E-08   5.942580360577509E-08
   6.169654261704642E-08   6.405404854536702E-08   6.650163676310927E-08
   6.904274931901568E-08   7.168095977807146E-08   7.441997824627147E-08
   7.726365658734941E-08   8.021599383879683E-08   8.328114183478572E-08
   8.646341104389898E-08   8.976727662986954E-08   9.319738474384962E-08
   9.675855905705152E-08   1.004558075429402E-07   1.042943295185107E-07
   1.082795229545420E-07   1.124169920651043E-07   1.167125551869826E-07
   1.211722529600879E-07   1.258023568203551E-07   1.306093778170545E-07
   1.356000757669133E-07   1.407814687579062E-07   1.461608430160664E-07
   1.517457631491864E-07   1.575440827817911E-07   1.635639555963355E-07
   1.698138467961304E-07   1.763025450061048E-07   1.830391746281231E-07
   1.900332086682084E-07   1.972944820537007E-07   2.048332054590475E-07
   2.126599796596523E-07   2.207858104339437E-07   2.292221240345884E-07
   2.379807832505892E-07   2.470741040828183E-07   2.565148730564090E-07
   2.663163651943194E-07   2.764923626773040E-07   2.870571742165062E-07
   2.980256551658659E-07   3.094132284025872E-07   3.212359060049903E-07
   3.335103117581684E-07   3.462537045190678E-07   3.594840024737764E-07
   3.732198083210923E-07   3.874804354176975E-07   4.022859349216833E-07
   4.176571239724607E-07   4.336156149466895E-07   4.501838458312212E-07
   4.673851117557155E-07   4.852435977291742E-07   5.037844126263230E-07
   5.230336244715718E-07   5.430182970699818E-07   5.637665280367511E-07
   5.853074882784315E-07   6.076714629813952E-07   6.308898941649743E-07
   6.549954248589836E-07   6.800219449675854E-07   7.060046388838381E-07
   7.329800349216676E-07   7.609860566346366E-07   7.900620760934123E-07
   8.202489691966686E-07   8.515891730929729E-07   8.841267457941108E-07
   9.179074280635019E-07   9.529787076663204E-07   9.893898860715253E-07
   1.027192147699137E-06   1.066438631809792E-06   1.107184507137829E-06
   1.149487049370997E-06   1.193405721587326E-06   1.239002257760798E-06
   1.286340749451873E-06   1.335487735806155E-06   1.386512296986218E-06
   1.439486151166682E-06   1.494483755230044E-06   1.551582409303156E-06
   1.610862365280274E-06   1.672406939485403E-06   1.736302629631470E-06
   1.802639236239829E-06   1.871509988689030E-06   1.943011676071253E-06
   2.017244783037745E-06   2.094313630822881E-06   2.174326523646137E-06
   2.257395900694356E-06   2.343638493898172E-06   2.433175491722109E-06
   2.526132709198603E-06   2.622640764442036E-06   2.722835261889044E-06
   2.826856982524064E-06   2.934852081351172E-06   3.046972292391925E-06
   3.163375141493125E-06   3.284224167241573E-06   3.409689150295635E-06
   3.539946351450899E-06   3.675178758775563E-06   3.815576344154986E-06
   3.961336329609996E-06   4.112663463752884E-06   4.269770308771347E-06
   4.432877538338230E-06   4.602214246861807E-06   4.778018270509660E-06
   4.960536520446897E-06   5.150025328761864E-06   5.346750807551036E-06
   5.550989221669531E-06   5.763027375663508E-06   5.983163015416933E-06
   6.211705245083607E-06   6.448974959869467E-06   6.695305295275011E-06
   6.951042093420614E-06   7.216544387097382E-06   7.492184902222590E-06
   7.778350579388073E-06   8.075443115233003E-06   8.383879524384197E-06
   8.704092722749201E-06   9.036532132964003E-06   9.381664312836855E-06
   9.739973607659543E-06   1.011196282728026E-05   1.049815394889044E-05
   1.089908884647407E-05   1.131533004795073E-05   1.174746152104025E-05
   1.219608948894444E-05   1.266184327696181E-05   1.314537619121656E-05
   1.364736643069336E-05   1.416851803385568E-05   1.470956186113025E-05
   1.527125661462857E-05   1.585438989649395E-05   1.645977930733136E-05
   1.708827358623555E-05   1.774075379397528E-05   1.841813454095981E-05
   1.912136526167039E-05   1.985143153729920E-05   2.060935646842000E-05
   2.139620209954743E-05   2.221307089755223E-05   2.306110728594093E-05
   2.394149923709653E-05   2.485547992465978E-05   2.580432943828195E-05
   2.678937656312215E-05   2.781200062646481E-05   2.887363341400816E-05
   2.997576115840130E-05   3.111992660273722E-05   3.230773114180603E-05
   3.354083704399604E-05   3.482096975685853E-05   3.614992029945450E-05
   3.752954774470458E-05   3.896178179510501E-05   4.044862545526331E-05
   4.199215780487288E-05   4.359453687583612E-05   4.525800263740577E-05
   4.698488009335785E-05   4.877758249533025E-05   5.063861467664051E-05
   5.257057651102537E-05   5.457616650092274E-05   5.665818550009088E-05
   5.881954057548321E-05   6.106324901355352E-05   6.339244247627382E-05
   6.581037131238275E-05   6.832040902957304E-05   7.092605693350560E-05
   7.363094893977761E-05   7.643885656518142E-05   7.935369410479026E-05
   8.237952400167716E-05   8.552056241629022E-05   8.878118500275425E-05
   9.216593289962240E-05   9.567951894288834E-05   9.932683410930969E-05
   1.031129541983915E-04   1.070431467616715E-04   1.111228782882298E-04
   1.153578216556708E-04   1.197538638561625E-04   1.243171140073723E-04
   1.290539116585780E-04   1.339708354024921E-04   1.390747118037727E-04
   1.443726246554776E-04   1.498719245752078E-04   1.555802389529570E-04
   1.615054822632206E-04   1.676558667541950E-04   1.740399135274442E-04
   1.806664640217881E-04   1.875446919156229E-04   1.946841154623852E-04
   2.020946102742880E-04   2.097864225700317E-04   2.177701829025993E-04
   2.260569203838710E-04   2.346580774232203E-04   2.435855249978658E-04
   2.528515784733001E-04   2.624690139926698E-04   2.724510854545939E-04
   2.828115420994599E-04   2.935646467249373E-04   3.047251945519685E-04
   3.163085327632386E-04   3.283305807367010E-04   3.408078509974603E-04
   3.537574709119709E-04   3.671972051491958E-04   3.811454789341146E-04
   3.956214021196471E-04   4.106447941038098E-04   4.262362096196809E-04
   4.424169654264835E-04   4.592091679308518E-04   4.766357417681689E-04
   4.947204593745518E-04   5.134879715810103E-04   5.329638392618879E-04
   5.531745660706824E-04   5.741476322970771E-04   5.959115298797809E-04
   6.184957986106654E-04   6.419310635664413E-04   6.662490738049151E-04
   6.914827423637524E-04   7.176661876003186E-04   7.448347759121206E-04
   7.730251658779945E-04   8.022753538610298E-04   8.326247211149589E-04
   8.641140824363446E-04   8.967857364057825E-04   9.306835172617355E-04
   9.658528484514712E-04   1.002340797904067E-03   1.040196135070821E-03
   1.079469389779290E-03   1.120212912947050E-03   1.162480939202173E-03
   1.206329651457357E-03   1.251817247484918E-03   1.299004008540140E-03
   1.347952370080234E-03   1.398726994626309E-03   1.451394846815497E-03
   1.506025270689887E-03   1.562690069268789E-03   1.621463586449901E-03
   1.682422791284299E-03   1.745647364669422E-03   1.811219788502588E-03
   1.879225437336801E-03   1.949752672578488E-03   2.022892939265270E-03
   2.098740865459867E-03   2.177394364293336E-03   2.258954738688877E-03
   2.343526788793714E-03   2.431218922143615E-03   2.522143266580773E-03
   2.616415785941301E-03   2.714156398524459E-03   2.815489098350116E-03
   2.920542079205660E-03   3.029447861477483E-03   3.142343421754970E-03
   3.259370325188241E-03   3.380674860572253E-03   3.506408178121464E-03
   3.636726429889962E-03   3.771790912781017E-03   3.911768214079831E-03
   4.056830359430281E-03   4.207154963163992E-03   4.362925380876165E-03
   4.524330864126676E-03   4.691566717129802E-03   4.864834455277330E-03
   5.044341965321689E-03   5.230303667025582E-03   5.422940676062138E-03
   5.622480967927774E-03   5.829159542603767E-03   6.043218589676867E-03
   6.264907653601108E-03   6.494483798751552E-03   6.732211773890247E-03
   6.978364175628625E-03   7.233221610434931E-03   7.497072854696582E-03
   7.770215012304805E-03   8.052953669186695E-03   8.345603044161484E-03
   8.648486135449641E-03   8.961934862110941E-03   9.286290199631076E-03
   9.621902308819773E-03   9.969130657119334E-03   1.032834413135854E-02
   1.069992114091784E-02   1.108424971019749E-02   1.148172755920633E-02
   1.189276217100575E-02   1.231777084466010E-02   1.275718073225661E-02
   1.321142885846204E-02   1.368096212098920E-02   1.416623727024078E-02
   1.466772086629328E-02   1.518588921127228E-02   1.572122825505148E-02
   1.627423347209083E-02   1.684540970709906E-02   1.743527098707732E-02
   1.804434029716563E-02   1.867314931757049E-02   1.932223811871111E-02
   1.999215481156819E-02   2.068345515006796E-02   2.139670208217626E-02
   2.213246524621283E-02   2.289132040873534E-02   2.367384884016954E-02
   2.448063662419400E-02   2.531227389671583E-02   2.616935401009471E-02
   2.705247261810454E-02   2.796222667694107E-02   2.889921335741436E-02
   2.986402886329464E-02   3.085726715060779E-02   3.187951854252268E-02
   3.293136823430884E-02   3.401339468270186E-02   3.512616787387651E-02
   3.627024746410009E-02   3.744618078703617E-02   3.865450072157226E-02
   3.989572341397726E-02   4.117034584815159E-02   4.247884325770570E-02
   4.382166637362733E-02   4.519923850133346E-02   4.661195242100403E-02
   4.806016710521742E-02   4.954420424809813E-02   5.106434460042923E-02
   5.262082410547587E-02   5.421382983065251E-02   5.584349569060156E-02
   5.750989795779302E-02   5.921305055737947E-02   6.095290014375902E-02
   6.272932095714834E-02   6.454210945941058E-02   6.639097874947852E-02
   6.827555275994024E-02   7.019536023772484E-02   7.214982851338318E-02
   7.413827706516267E-02   7.615991088599061E-02   7.821381366358866E-02
   8.029894078625140E-02   8.241411218938546E-02   8.455800506067558E-02
   8.672914642479392E-02   8.892590563187110E-02   9.114648677751712E-02
   9.338892108606273E-02   9.565105929284008E-02   9.793056406579967E-02
   1.002249025115462E-01   1.025313388159610E-01   1.048469270750182E-01
   1.071685043771217E-01   1.094926842043527E-01   1.118158502263759E-01
   1.141341505673932E-01   1.164434926334691E-01   1.187395385947076E-01
   1.210177016241527E-01   1.232731430028360E-01   1.255007702080599E-01
   1.276952361097576E-01   1.298509394074644E-01   1.319620264480700E-01
   1.340223945719297E-01   1.360256971419980E-01   1.379653504173049E-01
   1.398345424381137E-01   1.416262440953648E-01   1.433332225612914E-01
   1.449480572611767E-01   1.464631585678963E-01   1.478707894008341E-01
   1.491630899087427E-01   1.503321054117731E-01   1.513698177708921E-01
   1.522681803428835E-01   1.530191566656494E-01   1.536147630012086E-01
   1.540471148421475E-01   1.543084774608587E-01   1.543913205492187E-01
   1.542883769589021E-01   1.539927055088050E-01   1.534977577755576E-01
   1.527974487253462E-01   1.518862309797873E-01   1.507591724349611E-01
   1.494120368705563E-01   1.478413670950962E-01   1.460445700732154E-01
   1.440200033718327E-01   1.417670621439110E-01   1.392862657415186E-01
   1.365793429145845E-01   1.336493144087821E-01   1.305005716263366E-01
   1.271389498586187E-01   1.235717944408169E-01   1.198080180189245E-01
   1.158581469603704E-01   1.117343547849376E-01   1.074504803459311E-01
   1.030220283571223E-01   9.846614974382438E-02   9.380159920222302E-02
   8.904866728607352E-02   8.422908431130012E-02   7.936589338455872E-02
   7.448328992999859E-02   6.960642521839400E-02   6.476117160406207E-02
   5.997384745773457E-02   5.527090015800826E-02   5.067854598060261E-02
   4.622236631358220E-02   4.192686033750322E-02   3.781495515097378E-02
   3.390747530161658E-02   3.022257480546623E-02   2.677513600742976E-02
   2.357614105142742E-02   2.063202328736866E-02   1.794400763450427E-02
   1.550745073296677E-02   1.331119362707758E-02   1.133694170767719E-02
   9.562950544042215E-03   7.978769864085911E-03   6.576562325748547E-03
   5.347514442244711E-03   4.281926301451161E-03   3.369310398773806E-03
   2.598499560005824E-03   1.957763936041024E-03   1.434937055138752E-03
   1.017550917150500E-03   6.929801037030558E-04   4.485948534097839E-04
   2.719230058499389E-04   1.508206454117200E-04   7.365116817789619E-05
   2.947234365885398E-05   8.230738966469309E-06   9.626067079687717E-07
  -1.387778780781446E-17   0.000000000000000E+00   0.000000000000000E+00
   0.000000000000000E+00   0.000000000000000E+00   0.000000000000000E+00
   0.000000000000000E+00   0.000000000000000E+00   0.000000000000000E+00
   0.000000000000000E+00   0.000000000000000E+00   0.000000000000000E+00
   0.000000000000000E+00   0.000000000000000E+00   0.000000000000000E+00
   0.000000000000000E+00   0.000000000000000E+00   0.000000000000000E+00
   0.000000000000000E+00   0.000000000000000E+00   0.000000000000000E+00
   0.000000000000000E+00   0.000000000000000E+00   0.000000000000000E+00
   0.000000000000000E+00   0.000000000000000E+00   0.000000000000000E+00
   0.000000000000000E+00   0.000000000000000E+00   0.000000000000000E+00
   0.000000000000000E+00   0.000000000000000E+00   0.000000000000000E+00
   0.000000000000000E+00   0.000000000000000E+00   0.000000000000000E+00
   0.000000000000000E+00   0.000000000000000E+00   0.000000000000000E+00
   0.000000000000000E+00   0.000000000000000E+00   0.000000000000000E+00
   0.000000000000000E+00   0.000000000000000E+00   0.000000000000000E+00
   0.000000000000000E+00   0.000000000000000E+00   0.000000000000000E+00
   0.000000000000000E+00   0.000000000000000E+00   0.000000000000000E+00
   0.000000000000000E+00   0.000000000000000E+00   0.000000000000000E+00
   0.000000000000000E+00   0.000000000000000E+00   0.000000000000000E+00
   0.000000000000000E+00   0.000000000000000E+00   0.000000000000000E+00
   0.000000000000000E+00   0.000000000000000E+00   0.000000000000000E+00
   0.000000000000000E+00   0.000000000000000E+00   0.000000000000000E+00
   0.000000000000000E+00   0.000000000000000E+00   0.000000000000000E+00
   0.000000000000000E+00   0.000000000000000E+00   0.000000000000000E+00
   0.000000000000000E+00   0.000000000000000E+00   0.000000000000000E+00
   0.000000000000000E+00   0.000000000000000E+00   0.000000000000000E+00
   0.000000000000000E+00   0.000000000000000E+00   0.000000000000000E+00
   0.000000000000000E+00   0.000000000000000E+00   0.000000000000000E+00
   0.000000000000000E+00   0.000000000000000E+00   0.000000000000000E+00
   0.000000000000000E+00   0.000000000000000E+00   0.000000000000000E+00
   0.000000000000000E+00   0.000000000000000E+00   0.000000000000000E+00
   0.000000000000000E+00   0.000000000000000E+00   0.000000000000000E+00
   0.000000000000000E+00   0.000000000000000E+00   0.000000000000000E+00
   0.000000000000000E+00   0.000000000000000E+00   0.000000000000000E+00
   0.000000000000000E+00   0.000000000000000E+00   0.000000000000000E+00
   0.000000000000000E+00   0.000000000000000E+00   0.000000000000000E+00
   0.000000000000000E+00   0.000000000000000E+00   0.000000000000000E+00
   0.000000000000000E+00   0.000000000000000E+00   0.000000000000000E+00
   0.000000000000000E+00   0.000000000000000E+00   0.000000000000000E+00
   0.000000000000000E+00   0.000000000000000E+00   0.000000000000000E+00
   0.000000000000000E+00   0.000000000000000E+00   0.000000000000000E+00
   0.000000000000000E+00   0.000000000000000E+00   0.000000000000000E+00
   0.000000000000000E+00   0.000000000000000E+00   0.000000000000000E+00
   0.000000000000000E+00   0.000000000000000E+00   0.000000000000000E+00
   0.000000000000000E+00   0.000000000000000E+00   0.000000000000000E+00
   0.000000000000000E+00   0.000000000000000E+00   0.000000000000000E+00
   0.000000000000000E+00   0.000000000000000E+00   0.000000000000000E+00
   0.000000000000000E+00   0.000000000000000E+00   0.000000000000000E+00
   0.000000000000000E+00   0.000000000000000E+00   0.000000000000000E+00
   0.000000000000000E+00   0.000000000000000E+00   0.000000000000000E+00
   0.000000000000000E+00   0.000000000000000E+00   0.000000000000000E+00
   0.000000000000000E+00   0.000000000000000E+00   0.000000000000000E+00
   0.000000000000000E+00   0.000000000000000E+00   0.000000000000000E+00
   0.000000000000000E+00   0.000000000000000E+00   0.000000000000000E+00
   0.000000000000000E+00   0.000000000000000E+00   0.000000000000000E+00
   0.000000000000000E+00   0.000000000000000E+00   0.000000000000000E+00
   0.000000000000000E+00   0.000000000000000E+00   0.000000000000000E+00
   0.000000000000000E+00   0.000000000000000E+00   0.000000000000000E+00
   0.000000000000000E+00   0.000000000000000E+00   0.000000000000000E+00
   0.000000000000000E+00   0.000000000000000E+00   0.000000000000000E+00
   0.000000000000000E+00   0.000000000000000E+00   0.000000000000000E+00
   0.000000000000000E+00   0.000000000000000E+00   0.000000000000000E+00
   0.000000000000000E+00   0.000000000000000E+00   0.000000000000000E+00
   0.000000000000000E+00   0.000000000000000E+00   0.000000000000000E+00
   0.000000000000000E+00   0.000000000000000E+00   0.000000000000000E+00
   0.000000000000000E+00   0.000000000000000E+00   0.000000000000000E+00
   0.000000000000000E+00   0.000000000000000E+00   0.000000000000000E+00
   0.000000000000000E+00   0.000000000000000E+00   0.000000000000000E+00
   0.000000000000000E+00   0.000000000000000E+00   0.000000000000000E+00
   0.000000000000000E+00   0.000000000000000E+00   0.000000000000000E+00
   0.000000000000000E+00   0.000000000000000E+00   0.000000000000000E+00
   0.000000000000000E+00   0.000000000000000E+00   0.000000000000000E+00
   0.000000000000000E+00   0.000000000000000E+00   0.000000000000000E+00
   0.000000000000000E+00   0.000000000000000E+00   0.000000000000000E+00
   0.000000000000000E+00   0.000000000000000E+00   0.000000000000000E+00
   0.000000000000000E+00   0.000000000000000E+00   0.000000000000000E+00
   0.000000000000000E+00   0.000000000000000E+00   0.000000000000000E+00
   0.000000000000000E+00   0.000000000000000E+00   0.000000000000000E+00
   0.000000000000000E+00   0.000000000000000E+00   0.000000000000000E+00
   0.000000000000000E+00   0.000000000000000E+00   0.000000000000000E+00
   0.000000000000000E+00   0.000000000000000E+00   0.000000000000000E+00
   0.000000000000000E+00   0.000000000000000E+00   0.000000000000000E+00
   0.000000000000000E+00   0.000000000000000E+00   0.000000000000000E+00
   0.000000000000000E+00   0.000000000000000E+00   0.000000000000000E+00
   0.000000000000000E+00   0.000000000000000E+00   0.000000000000000E+00
   0.000000000000000E+00   0.000000000000000E+00   0.000000000000000E+00
   0.000000000000000E+00   0.000000000000000E+00   0.000000000000000E+00
   0.000000000000000E+00   0.000000000000000E+00   0.000000000000000E+00
   0.000000000000000E+00   0.000000000000000E+00   0.000000000000000E+00
   0.000000000000000E+00   0.000000000000000E+00   0.000000000000000E+00
   0.000000000000000E+00   0.000000000000000E+00   0.000000000000000E+00
   0.000000000000000E+00   0.000000000000000E+00   0.000000000000000E+00
   0.000000000000000E+00   0.000000000000000E+00   0.000000000000000E+00
   0.000000000000000E+00   0.000000000000000E+00   0.000000000000000E+00
   0.000000000000000E+00   0.000000000000000E+00   0.000000000000000E+00
   0.000000000000000E+00   0.000000000000000E+00   0.000000000000000E+00
   0.000000000000000E+00   0.000000000000000E+00   0.000000000000000E+00
   0.000000000000000E+00   0.000000000000000E+00   0.000000000000000E+00
   0.000000000000000E+00   0.000000000000000E+00   0.000000000000000E+00
   0.000000000000000E+00   0.000000000000000E+00   0.000000000000000E+00
   0.000000000000000E+00   0.000000000000000E+00   0.000000000000000E+00
   0.000000000000000E+00   0.000000000000000E+00   0.000000000000000E+00
   0.000000000000000E+00   0.000000000000000E+00   0.000000000000000E+00
   0.000000000000000E+00   0.000000000000000E+00   0.000000000000000E+00
   0.000000000000000E+00   0.000000000000000E+00   0.000000000000000E+00
   0.000000000000000E+00   0.000000000000000E+00
      </PP_QIJL.2.4.1>
      <PP_QIJL.3.3.0 first_index="3" second_index="3" composite_index="6" angular_momentum="0" size="1211">
   2.511088259320350E-10   2.574656760994618E-10   2.639834506937105E-10
   2.706662235359732E-10   2.775181715767141E-10   2.845435775063974E-10
   2.917468324323084E-10   2.991324386231393E-10   3.067050123230514E-10
   3.144692866369811E-10   3.224301144889801E-10   3.305924716554528E-10
   3.389614598751781E-10   3.475423100380605E-10   3.563403854546099E-10
   3.653611852081792E-10   3.746103475920742E-10   3.840936536336682E-10
   3.938170307077316E-10   4.037865562412362E-10   4.140084615119406E-10
   4.244891355431429E-10   4.352351290970280E-10   4.462531587691052E-10
   4.575501111863011E-10   4.691330473113207E-10   4.810092068559818E-10
   4.931860128062683E-10   5.056710760619359E-10   5.184722001935760E-10
   5.315973863200946E-10   5.450548381096745E-10   5.588529669073329E-10
   5.730003969922848E-10   5.875059709683995E-10   6.023787552911107E-10
   6.176280459342469E-10   6.332633742003165E-10   6.492945126778801E-10
   6.657314813497385E-10   6.825845538557411E-10   6.998642639141455E-10
   7.175814119055348E-10   7.357470716234025E-10   7.543725971956373E-10
   7.734696301812121E-10   7.930501068465418E-10   8.131262656260344E-10
   8.337106547715069E-10   8.548161401952555E-10   8.764559135116564E-10
   8.986435002823602E-10   9.213927684702018E-10   9.447179371071243E-10
   9.686335851815415E-10   9.931546607506667E-10   1.018296490283537E-09
   1.044074788240553E-09   1.070505666895518E-09   1.097605646406343E-09
   1.125391665140661E-09   1.153881090262869E-09   1.183091728589159E-09
   1.213041837717350E-09   1.243750137438491E-09   1.275235821437316E-09
   1.307518569288926E-09   1.340618558759156E-09   1.374556478416329E-09
   1.409353540562284E-09   1.445031494490738E-09   1.481612640081304E-09
   1.519119841737627E-09   1.557576542678378E-09   1.597006779590025E-09
   1.637435197650521E-09   1.678887065933347E-09   1.721388293201490E-09
   1.764965444101249E-09   1.809645755766012E-09   1.855457154840311E-09
   1.902428274934895E-09   1.950588474523646E-09   1.999967855293566E-09
   2.050597280959313E-09   2.102508396553992E-09   2.155733648208327E-09
   2.210306303430534E-09   2.266260471899573E-09   2.323631126784802E-09
   2.382454126605313E-09   2.442766237642666E-09   2.504605156920979E-09
   2.568009535768787E-09   2.633019003977359E-09   2.699674194570567E-09
   2.768016769201838E-09   2.838089444194010E-09   2.909936017238399E-09
   2.983601394769767E-09   3.059131620034247E-09   3.136573901867860E-09
   3.215976644203528E-09   3.297389476325078E-09   3.380863283887139E-09
   3.466450240720259E-09   3.554203841441233E-09   3.644178934888921E-09
   3.736431758406523E-09   3.831019972991709E-09   3.928002699336542E-09
   4.027440554779806E-09   4.129395691194749E-09   4.233931833835965E-09
   4.341114321169725E-09   4.451010145712526E-09   4.563687995903564E-09
   4.679218299037165E-09   4.797673265282055E-09   4.919126932815006E-09
   5.043655214096996E-09   5.171335943320903E-09   5.302248925060301E-09
   5.436475984149829E-09   5.574101016828295E-09   5.715210043176409E-09
   5.859891260882044E-09   6.008235100366545E-09   6.160334281306553E-09
   6.316283870586722E-09   6.476181341719433E-09   6.640126635768793E-09
   6.808222223816904E-09   6.980573171011450E-09   7.157287202234715E-09
   7.338474769434897E-09   7.524249120662030E-09   7.714726370851502E-09
   7.910025574399436E-09   8.110268799575429E-09   8.315581204818857E-09
   8.526091116966818E-09   8.741930111462305E-09   8.963233094592876E-09
   9.190138387811230E-09   9.422787814190285E-09   9.661326787066917E-09
   9.905904400929756E-09   1.015667352460768E-08   1.041379089681756E-08
   1.067741722413060E-08   1.094771728141879E-08   1.122486001484419E-08
   1.150901864745536E-08   1.180037078745692E-08   1.209909853921997E-08
   1.240538861710278E-08   1.271943246215281E-08   1.304142636176298E-08
   1.337157157235726E-08   1.371007444518165E-08   1.405714655527996E-08
   1.441300483373434E-08   1.477787170325354E-08   1.515197521719375E-08
   1.553554920209826E-08   1.592883340384625E-08   1.633207363750055E-08
   1.674552194094928E-08   1.716943673243689E-08   1.760408297208266E-08
   1.804973232748871E-08   1.850666334353966E-08   1.897516161650123E-08
   1.945551997252606E-08   1.994803865067793E-08   2.045302549059010E-08
   2.097079612487324E-08   2.150167417639473E-08   2.204599146055205E-08
   2.260408819266615E-08   2.317631320062586E-08   2.376302414291437E-08
   2.436458773215580E-08   2.498137996432041E-08   2.561378635373195E-08
   2.626220217402485E-08   2.692703270520041E-08   2.760869348693752E-08
   2.830761057831624E-08   2.902422082411512E-08   2.975897212785143E-08
   3.051232373173166E-08   3.128474650368994E-08   3.207672323169269E-08
   3.288874892549272E-08   3.372133112602341E-08   3.457499022262389E-08
   3.545025977829539E-08   3.634768686319147E-08   3.726783239654939E-08
   3.821127149727910E-08   3.917859384342550E-08   4.017040404073146E-08
   4.118732200053083E-08   4.222998332720656E-08   4.329903971545908E-08
   4.439515935762943E-08   4.551902736133482E-08   4.667134617767635E-08
   4.785283604028552E-08   4.906423541548685E-08   5.030630146385444E-08
   5.157981051345340E-08   5.288555854506157E-08   5.422436168967275E-08
   5.559705673859631E-08   5.700450166646752E-08   5.844757616749869E-08
   5.992718220530552E-08   6.144424457665013E-08   6.299971148945789E-08
   6.459455515546323E-08   6.622977239785982E-08   6.790638527433305E-08
   6.962544171586218E-08   7.138801618169619E-08   7.319521033090738E-08
   7.504815371094585E-08   7.694800446362491E-08   7.889595004897560E-08
   8.089320798742836E-08   8.294102662077905E-08   8.504068589242009E-08
   8.719349814732268E-08   8.940080895226727E-08   9.166399793684145E-08
   9.398447965572285E-08   9.636370447279197E-08   9.880315946762604E-08
   1.013043693649365E-07   1.038688974875390E-07   1.064983467334420E-07
   1.091943605776722E-07   1.119586240994592E-07   1.147928650354215E-07
   1.176988548594131E-07   1.206784098897050E-07   1.237333924241927E-07
   1.268657119043416E-07   1.300773261085936E-07   1.333702423759857E-07
   1.367465188607401E-07   1.402082658186140E-07   1.437576469258110E-07
   1.473968806312775E-07   1.511282415432322E-07   1.549540618507907E-07
   1.588767327815782E-07   1.628987060962378E-07   1.670224956207696E-07
   1.712506788176585E-07   1.755858983967711E-07   1.800308639670299E-07
   1.845883537298965E-07   1.892612162157203E-07   1.940523720640404E-07
   1.989648158489510E-07   2.040016179506723E-07   2.091659264744954E-07
   2.144609692182998E-07   2.198900556898760E-07   2.254565791753083E-07
   2.311640188597153E-07   2.370159420016716E-07   2.430160061626660E-07
   2.491679614929964E-07   2.554756530755209E-07   2.619430233287368E-07
   2.685741144706857E-07   2.753730710452232E-07   2.823441425122349E-07
   2.894916859034125E-07   2.968201685452535E-07   3.043341708509854E-07
   3.120383891831520E-07   3.199376387886629E-07   3.280368568081262E-07
   3.363411053613530E-07   3.448555747109619E-07   3.535855865060507E-07
   3.625365971079751E-07   3.717142010002991E-07   3.811241342850559E-07
   3.907722782675032E-07   4.006646631316026E-07   4.108074717085343E-07
   4.212070433405867E-07   4.318698778428444E-07   4.428026395651458E-07
   4.540121615568444E-07   4.655054498369825E-07   4.772896877725362E-07
   4.893722405674745E-07   5.017606598654296E-07   5.144626884688561E-07
   5.274862651776295E-07   5.408395297500980E-07   5.545308279896941E-07
   5.685687169602825E-07   5.829619703334897E-07   5.977195838713747E-07
   6.128507810478445E-07   6.283650188123384E-07   6.442719934993790E-07
   6.605816468876685E-07   6.773041724125332E-07   6.944500215355755E-07
   7.120299102755258E-07   7.300548259043673E-07   7.485360338129069E-07
   7.674850845500942E-07   7.869138210404689E-07   8.068343859842522E-07
   8.272592294446953E-07   8.482011166274363E-07   8.696731358566909E-07
   8.916887067532960E-07   9.142615886196820E-07   9.374058890370174E-07
   9.611360726798989E-07   9.854669703540688E-07   1.010413788262828E-06
   1.035992117507905E-06   1.062217943830723E-06   1.089107657600146E-06
   1.116678064052915E-06   1.144946393793203E-06   1.173930313557805E-06
   1.203647937253695E-06   1.234117837274855E-06   1.265359056105387E-06
   1.297391118216205E-06   1.330234042262695E-06   1.363908353590952E-06
   1.398435097060429E-06   1.433835850190933E-06   1.470132736642244E-06
   1.507348440034707E-06   1.545506218119443E-06   1.584629917307021E-06
   1.624743987563618E-06   1.665873497684002E-06   1.708044150950830E-06
   1.751282301190031E-06   1.795614969232301E-06   1.841069859790932E-06
   1.887675378766551E-06   1.935460650989512E-06   1.984455538411019E-06
   2.034690658754330E-06   2.086197404637614E-06   2.139007963180455E-06
   2.193155336106164E-06   2.248673360352425E-06   2.305596729203179E-06
   2.363961013954791E-06   2.423802686130140E-06   2.485159140254353E-06
   2.548068717206430E-06   2.612570728161297E-06   2.678705479137138E-06
   2.746514296163401E-06   2.816039551085032E-06   2.887324688019071E-06
   2.960414250480081E-06   3.035353909191217E-06   3.112190490598345E-06
   3.190972006104895E-06   3.271747682045620E-06   3.354567990417999E-06
   3.439484680390260E-06   3.526550810605755E-06   3.615820782303707E-06
   3.707350373276924E-06   3.801196772687616E-06   3.897418616762972E-06
   3.996076025392591E-06   4.097230639650661E-06   4.200945660266065E-06
   4.307285887064403E-06   4.416317759406398E-06   4.528109397647767E-06
   4.642730645646388E-06   4.760253114343084E-06   4.880750226443101E-06
   5.004297262226048E-06   5.130971406512631E-06   5.260851796817446E-06
   5.394019572717614E-06   5.530557926467899E-06   5.670552154893759E-06
   5.814089712594343E-06   5.961260266488616E-06   6.112155751738253E-06
   6.266870429082034E-06   6.425500943617283E-06   6.588146385064568E-06
   6.754908349553282E-06   6.925891002966075E-06   7.101201145881452E-06
   7.280948280154810E-06   7.465244677178843E-06   7.654205447865800E-06
   7.847948614394706E-06   8.046595183767899E-06   8.250269223222438E-06
   8.459097937542738E-06   8.673211748322432E-06   8.892744375224222E-06
   9.117832919287917E-06   9.348617948338071E-06   9.585243584543792E-06
   9.827857594184824E-06   1.007661147967921E-05   1.033166057392907E-05
   1.059316413704291E-05   1.086128545549355E-05   1.113619194377314E-05
   1.141805524860752E-05   1.170705135579405E-05   1.200336069972872E-05
   1.230716827568944E-05   1.261866375494498E-05   1.293804160275976E-05
   1.326550119936716E-05   1.360124696398545E-05   1.394548848195217E-05
   1.429844063505516E-05   1.466032373513981E-05   1.503136366107437E-05
   1.541179199915708E-05   1.580184618705077E-05   1.620176966133330E-05
   1.661181200875339E-05   1.703222912128452E-05   1.746328335507134E-05
   1.790524369336524E-05   1.835838591354872E-05   1.882299275834985E-05
   1.929935411135110E-05   1.978776717689935E-05   2.028853666452582E-05
   2.080197497798851E-05   2.132840240905139E-05   2.186814733611774E-05
   2.242154642783817E-05   2.298894485181594E-05   2.357069648853655E-05
   2.416716415064996E-05   2.477871980773824E-05   2.540574481670415E-05
   2.604863015791886E-05   2.670777667727160E-05   2.738359533426633E-05
   2.807650745631428E-05   2.878694499937539E-05   2.951535081510401E-05
   3.026217892465954E-05   3.102789479934538E-05   3.181297564824337E-05
   3.261791071301634E-05   3.344320157005265E-05   3.428936244013437E-05
   3.515692050581180E-05   3.604641623667295E-05   3.695840372270115E-05
   3.789345101591707E-05   3.885214048050813E-05   3.983506915165107E-05
   4.084284910323928E-05   4.187610782473152E-05   4.293548860734214E-05
   4.402165093980089E-05   4.513527091391245E-05   4.627704164015330E-05
   4.744767367354855E-05   4.864789545007517E-05   4.987845373384715E-05
   5.114011407534033E-05   5.243366128092261E-05   5.375989989396104E-05
   5.511965468778161E-05   5.651377117076701E-05   5.794311610388064E-05
   5.940857803091367E-05   6.091106782175834E-05   6.245151922901504E-05
   6.403088945825191E-05   6.565015975223826E-05   6.731033598948251E-05
   6.901244929741227E-05   7.075755668054000E-05   7.254674166396769E-05
   7.438111495258904E-05   7.626181510635612E-05   7.819000923198670E-05
   8.016689369149210E-05   8.219369482791968E-05   8.427166970870628E-05
   8.640210688705016E-05   8.858632718171776E-05   9.082568447570669E-05
   9.312156653419966E-05   9.547539584224883E-05   9.788863046264018E-05
   1.003627649143975E-04   1.028993310723910E-04   1.054998990885298E-04
   1.081660783350214E-04   1.108995183701949E-04   1.137019099273902E-04
   1.165749859274263E-04   1.195205225151736E-04   1.225403401207598E-04
   1.256363045459519E-04   1.288103280762673E-04   1.320643706193696E-04
   1.354004408703258E-04   1.388205975042996E-04   1.423269503972733E-04
   1.459216618753959E-04   1.496069479935651E-04   1.533850798438642E-04
   1.572583848944773E-04   1.612292483597237E-04   1.653001146018551E-04
   1.694734885652687E-04   1.737519372438068E-04   1.781380911818098E-04
   1.826346460096066E-04   1.872443640141347E-04   1.919700757453829E-04
   1.968146816593702E-04   2.017811537983689E-04   2.068725375090968E-04
   2.120919531996079E-04   2.174425981356115E-04   2.229277482769672E-04
   2.285507601551005E-04   2.343150727920897E-04   2.402242096621858E-04
   2.462817806965183E-04   2.524914843317620E-04   2.588571096035226E-04
   2.653825382852161E-04   2.720717470732108E-04   2.789288098189987E-04
   2.859578998091714E-04   2.931632920939660E-04   3.005493658651441E-04
   3.081206068839691E-04   3.158816099600294E-04   3.238370814816658E-04
   3.319918419987378E-04   3.403508288584566E-04   3.489190988950139E-04
   3.577018311736977E-04   3.667043297902013E-04   3.759320267257850E-04
   3.853904847589551E-04   3.950854004342876E-04   4.050226070889997E-04
   4.152080779378626E-04   4.256479292169956E-04   4.363484233870682E-04
   4.473159723963918E-04   4.585571410043399E-04   4.700786501655087E-04
   4.818873804749704E-04   4.939903756749193E-04   5.063948462229740E-04
   5.191081729223113E-04   5.321379106137809E-04   5.454917919300458E-04
   5.591777311117428E-04   5.732038278855717E-04   5.875783714041246E-04
   6.023098442472039E-04   6.174069264842469E-04   6.328784997973909E-04
   6.487336516646001E-04   6.649816796021285E-04   6.816320954655214E-04
   6.986946298081497E-04   7.161792362961859E-04   7.340960961787458E-04
   7.524556228117455E-04   7.712684662338823E-04   7.905455177929261E-04
   8.102979148203224E-04   8.305370453519043E-04   8.512745528922601E-04
   8.725223412201027E-04   8.942925792316972E-04   9.165977058191576E-04
   9.394504347801330E-04   9.628637597550859E-04   9.868509591880873E-04
   1.011425601306665E-03   1.036601549115920E-03   1.062392965401742E-03
   1.088814317737523E-03   1.115880383488408E-03   1.143606254806613E-03
   1.172007343610904E-03   1.201099386542834E-03   1.230898449891768E-03
   1.261420934480255E-03   1.292683580500618E-03   1.324703472293113E-03
   1.357498043055282E-03   1.391085079471492E-03   1.425482726250904E-03
   1.460709490561366E-03   1.496784246345933E-03   1.533726238507846E-03
   1.571555086948951E-03   1.610290790445584E-03   1.649953730344990E-03
   1.690564674064286E-03   1.732144778372931E-03   1.774715592438477E-03
   1.818299060614248E-03   1.862917524946294E-03   1.908593727375638E-03
   1.955350811610531E-03   2.003212324641842E-03   2.052202217873359E-03
   2.102344847837038E-03   2.153664976461632E-03   2.206187770861425E-03
   2.259938802609765E-03   2.314944046460539E-03   2.371229878478247E-03
   2.428823073535614E-03   2.487750802135354E-03   2.548040626510209E-03
   2.609720495953360E-03   2.672818741328374E-03   2.737364068705477E-03
   2.803385552068216E-03   2.870912625031397E-03   2.939975071508656E-03
   3.010603015264419E-03   3.082826908282031E-03   3.156677517876488E-03
   3.232185912476263E-03   3.309383445995612E-03   3.388301740714313E-03
   3.468972668578170E-03   3.551428330829449E-03   3.635701035871692E-03
   3.721823275269460E-03   3.809827697778303E-03   3.899747081295745E-03
   3.991614302619059E-03   4.085462304890020E-03   4.181324062601966E-03
   4.279232544038357E-03   4.379220671006511E-03   4.481321275724343E-03
   4.585567054711141E-03   4.691990519527857E-03   4.800623944204957E-03
   4.911499309189573E-03   5.024648241636712E-03   5.140101951861469E-03
   5.257891165762720E-03   5.378046053020126E-03   5.500596150859179E-03
   5.625570283170909E-03   5.752996474764105E-03   5.882901860520496E-03
   6.015312589213789E-03   6.150253721745420E-03   6.287749123540961E-03
   6.427821350841571E-03   6.570491530616703E-03   6.715779233814167E-03
   6.863702341654876E-03   7.014276904670439E-03   7.167516994171626E-03
   7.323434545827463E-03   7.482039195024390E-03   7.643338103666289E-03
   7.807335778067208E-03   7.974033877578798E-03   8.143431013587069E-03
   8.315522538503359E-03   8.490300324367083E-03   8.667752530670193E-03
   8.847863361005306E-03   9.030612808133958E-03   9.215976387064374E-03
   9.403924855723637E-03   9.594423922804855E-03   9.787433942365675E-03
   9.982909594753689E-03   1.018079955343173E-02   1.038104613727756E-02
   1.058358494793427E-02   1.078834449179038E-02   1.099524578617595E-02
   1.120420194936708E-02   1.141511777400200E-02   1.162788928352499E-02
   1.184240327128835E-02   1.205853682196302E-02   1.227615681492846E-02
   1.249511940933919E-02   1.271526951059459E-02   1.293644021797166E-02
   1.315845225322025E-02   1.338111336996259E-02   1.360421774378884E-02
   1.382754534299547E-02   1.405086127997363E-02   1.427391514332491E-02
   1.449644031085539E-02   1.471815324368402E-02   1.493875276179355E-02
   1.515791930145189E-02   1.537531415504501E-02   1.559057869398192E-02
   1.580333357546557E-02   1.601317793406773E-02   1.621968855920182E-02
   1.642241905975839E-02   1.662089901735107E-02   1.681463312981966E-02
   1.700310034685201E-02   1.718575299981553E-02   1.736201592813902E-02
   1.753128560484999E-02   1.769292926415894E-02   1.784628403428652E-02
   1.799065607905487E-02   1.812531975211229E-02   1.824951676802868E-02
   1.836245539489251E-02   1.846330967345562E-02   1.855121866831241E-02
   1.862528575706580E-02   1.868457796392242E-02   1.872812534467629E-02
   1.875492043058216E-02   1.876391773918849E-02   1.875403336079345E-02
   1.872414462980814E-02   1.867308989095477E-02   1.859966837089768E-02
   1.850264016659616E-02   1.838072636238215E-02   1.823260928849917E-02
   1.805693293458960E-02   1.785230353238272E-02   1.761729032261362E-02
   1.735042652198611E-02   1.705021050678246E-02   1.671510723050547E-02
   1.634354989371796E-02   1.593394188500519E-02   1.548465901272542E-02
   1.499405204792271E-02   1.446044959943993E-02   1.388216134288710E-02
   1.325748162566770E-02   1.258469347073649E-02   1.186207300214403E-02
   1.108789431568719E-02   1.026043481813145E-02   9.377981058462239E-03
   8.438835074447738E-03   7.441321277434966E-03   6.383793897711354E-03
   5.264645011946076E-03   4.082313173122814E-03   2.835292661974669E-03
   1.522143377201659E-03   1.415013796359959E-04  -1.307909896982130E-03
  -2.827267758918413E-03  -4.417637682787193E-03  -6.079960061020340E-03
  -7.815036264700250E-03  -9.623514031122112E-03  -1.150587218924852E-02
  -1.346240474270539E-02  -1.549320433717888E-02  -1.759814514708732E-02
  -1.977686522520060E-02  -2.202874836855485E-02  -2.435290556455799E-02
  -2.674815609262955E-02  -2.921300836911918E-02  -3.174564063655760E-02
  -3.434388161257114E-02  -3.700519122899219E-02  -3.972664160779102E-02
  -4.250489843745275E-02  -4.533620293118824E-02  -4.821635456690246E-02
  -5.114069482799159E-02  -5.410409218367705E-02  -5.710092856759446E-02
  -6.012508763347134E-02  -6.316994508679512E-02  -6.622836141107423E-02
  -6.929267732631367E-02  -7.235471233535382E-02  -7.540576673025848E-02
  -7.843662744560544E-02  -8.143757815774980E-02  -8.439841403831398E-02
  -8.730846157571960E-02  -9.015660387971568E-02  -9.293131187989756E-02
  -9.562068181926026E-02  -9.821247942700262E-02  -1.006941911301995E-01
  -1.030530826305153E-01  -1.052762651288908E-01  -1.073507694269898E-01
  -1.092636280680738E-01  -1.110019656008558E-01  -1.125530969566730E-01
  -1.139046338220926E-01  -1.150445987648906E-01  -1.159615467304692E-01
  -1.166446933676166E-01  -1.170840494666591E-01  -1.172705605994186E-01
  -1.171962508391923E-01  -1.168543692108252E-01  -1.162395372769756E-01
  -1.153478960085219E-01  -1.141772498170158E-01  -1.127272053481931E-01
  -1.109993023516406E-01  -1.089971336575265E-01  -1.067264510126075E-01
  -1.041952532613309E-01  -1.014138531117500E-01  -9.839491850939605E-02
  -9.515348446560842E-02  -9.170693106193474E-02  -8.807492329202297E-02
  -8.427930842118866E-02  -8.034396665691115E-02  -7.629461114710395E-02
  -7.215853367422935E-02  -6.796429290951428E-02  -6.374134275018066E-02
  -5.951959910071007E-02  -5.532894449254119E-02  -5.119867117944388E-02
  -4.715686480944204E-02  -4.322973246640629E-02  -3.944088079833376E-02
  -3.581055210178643E-02  -3.235482860273146E-02  -2.908481774376859E-02
  -2.600583402693149E-02  -2.311659582833991E-02  -2.040845854082701E-02
  -1.786939200115450E-02  -1.550012533271644E-02  -1.330451055628062E-02
  -1.128542365227203E-02  -9.444686211418918E-03  -7.782978578725785E-03
  -6.299744014480524E-03  -4.993083536255716E-03  -3.859641282285720E-03
  -2.894480453743908E-03  -2.090950156416582E-03  -1.440543776567327E-03
  -9.327498975060244E-04  -5.548971990462226E-04  -2.919952885693800E-04
  -1.265739970069957E-04  -3.852434289419726E-05  -4.945129509714707E-06
   0.000000000000000E+00   0.000000000000000E+00   0.000000000000000E+00
   0.000000000000000E+00   0.000000000000000E+00   0.000000000000000E+00
   0.000000000000000E+00   0.000000000000000E+00   0.000000000000000E+00
   0.000000000000000E+00   0.000000000000000E+00   0.000000000000000E+00
   0.000000000000000E+00   0.000000000000000E+00   0.000000000000000E+00
   0.000000000000000E+00   0.000000000000000E+00   0.000000000000000E+00
   0.000000000000000E+00   0.000000000000000E+00   0.000000000000000E+00
   0.000000000000000E+00   0.000000000000000E+00   0.000000000000000E+00
   0.000000000000000E+00   0.000000000000000E+00   0.000000000000000E+00
   0.000000000000000E+00   0.000000000000000E+00   0.000000000000000E+00
   0.000000000000000E+00   0.000000000000000E+00   0.000000000000000E+00
   0.000000000000000E+00   0.000000000000000E+00   0.000000000000000E+00
   0.000000000000000E+00   0.000000000000000E+00   0.000000000000000E+00
   0.000000000000000E+00   0.000000000000000E+00   0.000000000000000E+00
   0.000000000000000E+00   0.000000000000000E+00   0.000000000000000E+00
   0.000000000000000E+00   0.000000000000000E+00   0.000000000000000E+00
   0.000000000000000E+00   0.000000000000000E+00   0.000000000000000E+00
   0.000000000000000E+00   0.000000000000000E+00   0.000000000000000E+00
   0.000000000000000E+00   0.000000000000000E+00   0.000000000000000E+00
   0.000000000000000E+00   0.000000000000000E+00   0.000000000000000E+00
   0.000000000000000E+00   0.000000000000000E+00   0.000000000000000E+00
   0.000000000000000E+00   0.000000000000000E+00   0.000000000000000E+00
   0.000000000000000E+00   0.000000000000000E+00   0.000000000000000E+00
   0.000000000000000E+00   0.000000000000000E+00   0.000000000000000E+00
   0.000000000000000E+00   0.000000000000000E+00   0.000000000000000E+00
   0.000000000000000E+00   0.000000000000000E+00   0.000000000000000E+00
   0.000000000000000E+00   0.000000000000000E+00   0.000000000000000E+00
   0.000000000000000E+00   0.000000000000000E+00   0.000000000000000E+00
   0.000000000000000E+00   0.000000000000000E+00   0.000000000000000E+00
   0.000000000000000E+00   0.000000000000000E+00   0.000000000000000E+00
   0.000000000000000E+00   0.000000000000000E+00   0.000000000000000E+00
   0.000000000000000E+00   0.000000000000000E+00   0.000000000000000E+00
   0.000000000000000E+00   0.000000000000000E+00   0.000000000000000E+00
   0.000000000000000E+00   0.000000000000000E+00   0.000000000000000E+00
   0.000000000000000E+00   0.000000000000000E+00   0.000000000000000E+00
   0.000000000000000E+00   0.000000000000000E+00   0.000000000000000E+00
   0.000000000000000E+00   0.000000000000000E+00   0.000000000000000E+00
   0.000000000000000E+00   0.000000000000000E+00   0.000000000000000E+00
   0.000000000000000E+00   0.000000000000000E+00   0.000000000000000E+00
   0.000000000000000E+00   0.000000000000000E+00   0.000000000000000E+00
   0.000000000000000E+00   0.000000000000000E+00   0.000000000000000E+00
   0.000000000000000E+00   0.000000000000000E+00   0.000000000000000E+00
   0.000000000000000E+00   0.000000000000000E+00   0.000000000000000E+00
   0.000000000000000E+00   0.000000000000000E+00   0.000000000000000E+00
   0.000000000000000E+00   0.000000000000000E+00   0.000000000000000E+00
   0.000000000000000E+00   0.000000000000000E+00   0.000000000000000E+00
   0.000000000000000E+00   0.000000000000000E+00   0.000000000000000E+00
   0.000000000000000E+00   0.000000000000000E+00   0.000000000000000E+00
   0.000000000000000E+00   0.000000000000000E+00   0.000000000000000E+00
   0.000000000000000E+00   0.000000000000000E+00   0.000000000000000E+00
   0.000000000000000E+00   0.000000000000000E+00   0.000000000000000E+00
   0.000000000000000E+00   0.000000000000000E+00   0.000000000000000E+00
   0.000000000000000E+00   0.000000000000000E+00   0.000000000000000E+00
   0.000000000000000E+00   0.000000000000000E+00   0.000000000000000E+00
   0.000000000000000E+00   0.000000000000000E+00   0.000000000000000E+00
   0.000000000000000E+00   0.000000000000000E+00   0.000000000000000E+00
   0.000000000000000E+00   0.000000000000000E+00   0.000000000000000E+00
   0.000000000000000E+00   0.000000000000000E+00   0.000000000000000E+00
   0.000000000000000E+00   0.000000000000000E+00   0.000000000000000E+00
   0.000000000000000E+00   0.000000000000000E+00   0.000000000000000E+00
   0.000000000000000E+00   0.000000000000000E+00   0.000000000000000E+00
   0.000000000000000E+00   0.000000000000000E+00   0.000000000000000E+00
   0.000000000000000E+00   0.000000000000000E+00   0.000000000000000E+00
   0.000000000000000E+00   0.000000000000000E+00   0.000000000000000E+00
   0.000000000000000E+00   0.000000000000000E+00   0.000000000000000E+00
   0.000000000000000E+00   0.000000000000000E+00   0.000000000000000E+00
   0.000000000000000E+00   0.000000000000000E+00   0.000000000000000E+00
   0.000000000000000E+00   0.000000000000000E+00   0.000000000000000E+00
   0.000000000000000E+00   0.000000000000000E+00   0.000000000000000E+00
   0.000000000000000E+00   0.000000000000000E+00   0.000000000000000E+00
   0.000000000000000E+00   0.000000000000000E+00   0.000000000000000E+00
   0.000000000000000E+00   0.000000000000000E+00   0.000000000000000E+00
   0.000000000000000E+00   0.000000000000000E+00   0.000000000000000E+00
   0.000000000000000E+00   0.000000000000000E+00   0.000000000000000E+00
   0.000000000000000E+00   0.000000000000000E+00   0.000000000000000E+00
   0.000000000000000E+00   0.000000000000000E+00   0.000000000000000E+00
   0.000000000000000E+00   0.000000000000000E+00   0.000000000000000E+00
   0.000000000000000E+00   0.000000000000000E+00   0.000000000000000E+00
   0.000000000000000E+00   0.000000000000000E+00   0.000000000000000E+00
   0.000000000000000E+00   0.000000000000000E+00   0.000000000000000E+00
   0.000000000000000E+00   0.000000000000000E+00   0.000000000000000E+00
   0.000000000000000E+00   0.000000000000000E+00   0.000000000000000E+00
   0.000000000000000E+00   0.000000000000000E+00   0.000000000000000E+00
   0.000000000000000E+00   0.000000000000000E+00   0.000000000000000E+00
   0.000000000000000E+00   0.000000000000000E+00   0.000000000000000E+00
   0.000000000000000E+00   0.000000000000000E+00   0.000000000000000E+00
   0.000000000000000E+00   0.000000000000000E+00   0.000000000000000E+00
   0.000000000000000E+00   0.000000000000000E+00   0.000000000000000E+00
   0.000000000000000E+00   0.000000000000000E+00   0.000000000000000E+00
   0.000000000000000E+00   0.000000000000000E+00   0.000000000000000E+00
   0.000000000000000E+00   0.000000000000000E+00   0.000000000000000E+00
   0.000000000000000E+00   0.000000000000000E+00   0.000000000000000E+00
   0.000000000000000E+00   0.000000000000000E+00   0.000000000000000E+00
   0.000000000000000E+00   0.000000000000000E+00   0.000000000000000E+00
   0.000000000000000E+00   0.000000000000000E+00   0.000000000000000E+00
   0.000000000000000E+00   0.000000000000000E+00   0.000000000000000E+00
   0.000000000000000E+00   0.000000000000000E+00   0.000000000000000E+00
   0.000000000000000E+00   0.000000000000000E+00   0.000000000000000E+00
   0.000000000000000E+00   0.000000000000000E+00   0.000000000000000E+00
   0.000000000000000E+00   0.000000000000000E+00   0.000000000000000E+00
   0.000000000000000E+00   0.000000000000000E+00   0.000000000000000E+00
   0.000000000000000E+00   0.000000000000000E+00   0.000000000000000E+00
   0.000000000000000E+00   0.000000000000000E+00   0.000000000000000E+00
   0.000000000000000E+00   0.000000000000000E+00   0.000000000000000E+00
   0.000000000000000E+00   0.000000000000000E+00   0.000000000000000E+00
   0.000000000000000E+00   0.000000000000000E+00
      </PP_QIJL.3.3.0>
      <PP_QIJL.3.3.2 first_index="3" second_index="3" composite_index="6" angular_momentum="2" size="1211">
  -3.922819787403528E-19  -4.123947058680962E-19  -4.335386345659470E-19
  -4.557666356689226E-19  -4.791342907577165E-19  -5.037000311415933E-19
  -5.295252839671016E-19  -5.566746258179349E-19  -5.852159441900219E-19
  -6.152206072456393E-19  -6.467636422709748E-19  -6.799239232834299E-19
  -7.147843682577443E-19  -7.514321464641199E-19  -7.899588964368102E-19
  -8.304609551181692E-19  -8.730395987511965E-19  -9.178012961228952E-19
  -9.648579747916887E-19  -1.014327300964629E-18  -1.066332973724186E-18
  -1.121005034340391E-18  -1.178480191441743E-18  -1.238902162857988E-18
  -1.302422034989557E-18  -1.369198640602241E-18  -1.439398955991853E-18
  -1.513198518511934E-18  -1.590781865508556E-18  -1.672342995759828E-18
  -1.758085854573865E-18  -1.848224843758286E-18  -1.942985357736414E-18
  -2.042604347150725E-18  -2.147330911362885E-18  -2.257426921331875E-18
  -2.373167674427797E-18  -2.494842582818689E-18  -2.622755897151672E-18
  -2.757227467338079E-18  -2.898593542344766E-18  -3.047207610991701E-18
  -3.203441285858124E-18  -3.367685232507526E-18  -3.540350146355098E-18
  -3.721867779620087E-18  -3.912692020931281E-18  -4.113300030284971E-18
  -4.324193432193448E-18  -4.545899570007619E-18  -4.778972824549937E-18
  -5.023996000355294E-18  -5.281581782985863E-18  -5.552374271064088E-18
  -5.837050586854823E-18  -6.136322569423517E-18  -6.450938554604716E-18
  -6.781685246231392E-18  -7.129389683304225E-18  -7.494921308019986E-18
  -7.879194139829671E-18  -8.283169060963316E-18  -8.707856219135962E-18
  -9.154317553443056E-18  -9.623669449761386E-18  -1.011708553229503E-17
  -1.063579959824723E-17  -1.118110870295599E-17  -1.175437640320786E-17
  -1.235703616684028E-17  -1.299059495715748E-17  -1.365663700112379E-17
  -1.435682775075601E-17  -1.509291804762089E-17  -1.586674850085109E-17
  -1.668025408962624E-17  -1.753546900162891E-17  -1.843453171957319E-17
  -1.937969036852510E-17  -2.037330833738638E-17  -2.141787018859716E-17
  -2.251598787083637E-17  -2.367040725025358E-17  -2.488401497656434E-17
  -2.615984570117815E-17  -2.750108966540694E-17  -2.891110067773007E-17
  -3.039340450006212E-17  -3.195170766399369E-17  -3.358990673905104E-17
  -3.531209807614871E-17  -3.712258805060027E-17  -3.902590383029929E-17
  -4.102680469599657E-17  -4.313029394198098E-17  -4.534163138691995E-17
  -4.766634652614582E-17  -5.011025235827347E-17  -5.267945992072394E-17
  -5.538039357050117E-17  -5.821980704842858E-17  -6.120480036701926E-17
  -6.434283756420399E-17  -6.764176536731283E-17  -7.110983281398067E-17
  -7.475571187903512E-17  -7.858851915895055E-17  -8.261783866808601E-17
  -8.685374580371194E-17  -9.130683253975047E-17  -9.598823391222409E-17
  -1.009096558626451E-16  -1.060834045089645E-16  -1.115224169172738E-16
  -1.172402934512091E-16  -1.232513317799383E-16  -1.295705626297813E-16
  -1.362137873688510E-16  -1.431976175187010E-16  -1.505395162917798E-16
  -1.582578422585528E-16  -1.663718952534885E-16  -1.749019646346919E-16
  -1.838693800178649E-16  -1.932965646114513E-16  -2.032070912863298E-16
  -2.136257415202664E-16  -2.245785673645096E-16  -2.360929565874819E-16
  -2.481977011584620E-16  -2.609230692424930E-16  -2.743008808865556E-16
  -2.883645875862507E-16  -3.031493559319511E-16  -3.186921555435896E-16
  -3.350318515139478E-16  -3.522093015916238E-16  -3.702674583466720E-16
  -3.892514765743859E-16  -4.092088262057964E-16  -4.301894110072014E-16
  -4.522456933655638E-16  -4.754328254717838E-16  -4.998087872298844E-16
  -5.254345312369515E-16  -5.523741351963488E-16  -5.806949621453274E-16
  -6.104678288976835E-16  -6.417671831226437E-16  -6.746712895027949E-16
  -7.092624254365106E-16  -7.456270867742729E-16  -7.838562041033117E-16
  -8.240453701213916E-16  -8.662950786683109E-16  -9.107109760127810E-16
  -9.574041250230842E-16  -1.006491282882035E-15  -1.058095193040683E-15
  -1.112344892140827E-15  -1.169376032673735E-15  -1.229331222181967E-15
  -1.292360379852425E-15  -1.358621111392312E-15  -1.428279103125424E-15
  -1.501508536294097E-15  -1.578492522603003E-15  -1.659423562093600E-15
  -1.744504024494406E-15  -1.833946655250602E-15  -1.927975107498247E-15
  -2.026824501313525E-15  -2.130742011635167E-15  -2.239987486330371E-15
  -2.354834095949646E-15  -2.475569016795163E-15  -2.602494149010972E-15
  -2.735926871490264E-15  -2.876200835487665E-15  -3.023666798920908E-15
  -3.178693503447901E-15  -3.341668596512716E-15  -3.512999600665635E-15
  -3.693114932581444E-15  -3.882464974323842E-15  -4.081523199534630E-15
  -4.290787357364072E-15  -4.510780717102369E-15  -4.742053376624878E-15
  -4.985183637922787E-15  -5.240779453158424E-15  -5.509479944861854E-15
  -5.791957004069089E-15  -6.088916970398866E-15  -6.401102398268785E-15
  -6.729293913666884E-15  -7.074312166122441E-15  -7.437019880755853E-15
  -7.818324015539629E-15  -8.219178029164543E-15  -8.640584265181160E-15
  -9.083596458379718E-15  -9.549322369673877E-15  -1.003892655607838E-14
  -1.055363328270632E-14  -1.109472958406708E-14  -1.166356848232125E-14
  -1.226157237053792E-14  -1.289023656941572E-14  -1.355113306636080E-14
  -1.424591444627052E-14  -1.497631802385385E-14  -1.574417018781895E-14
  -1.655139096779264E-14  -1.739999883539054E-14  -1.829211575144247E-14
  -1.922997247199571E-14  -2.021591412636128E-14  -2.125240608115327E-14
  -2.234204010498381E-14  -2.348754084922728E-14  -2.469177266106196E-14
  -2.595774674582148E-14  -2.728862869656880E-14  -2.868774640971931E-14
  -3.015859840650476E-14  -3.170486258108971E-14  -3.333040539721068E-14
  -3.503929155633776E-14  -3.683579416153327E-14  -3.872440540242007E-14
  -4.070984778798228E-14  -4.279708595528013E-14  -4.499133908361171E-14
  -4.729809394516198E-14  -4.972311862476908E-14  -5.227247694312155E-14
  -5.495254361944351E-14  -5.777002021158847E-14  -6.073195187339845E-14
  -6.384574497122672E-14  -6.711918560368285E-14  -7.056045907089852E-14
  -7.417817034200572E-14  -7.798136557200258E-14  -8.197955472180932E-14
  -8.618273533807910E-14  -9.060141755222200E-14  -9.524665036115501E-14
  -1.001300492554923E-13  -1.052638252642595E-13  -1.106608154887610E-13
  -1.163345152019461E-13  -1.222991115935451E-13  -1.285695192453487E-13
  -1.351614174253410E-13  -1.420912892939406E-13  -1.493764631203806E-13
  -1.570351556122962E-13  -1.650865174668613E-13  -1.735506812573735E-13
  -1.824488117750353E-13  -1.918031589518014E-13  -2.016371134966354E-13
  -2.119752653842896E-13  -2.228434653428576E-13  -2.342688894938559E-13
  -2.462801073064599E-13  -2.589071530358201E-13  -2.721816008240876E-13
  -2.861366436519348E-13  -3.008071763380030E-13  -3.162298827937967E-13
  -3.324433277522261E-13  -3.494880531991521E-13  -3.674066797490623E-13
  -3.862440132183761E-13  -4.060471566628514E-13  -4.268656281592526E-13
  -4.487514846257964E-13  -4.717594519909676E-13  -4.959470620362175E-13
  -5.213747962547000E-13  -5.481062370857722E-13  -5.762082269034214E-13
  -6.057510351561550E-13  -6.368085340763120E-13  -6.694583833981208E-13
  -7.037822245464173E-13  -7.398658847815840E-13  -7.777995918111550E-13
  -8.176781994047468E-13  -8.596014245764448E-13  -9.036740969277124E-13
  -9.500064207743382E-13  -9.987142507127974E-13  -1.049919381315156E-12
  -1.103749851676824E-12  -1.160340265578733E-12  -1.219832128064452E-12
  -1.282374199273869E-12  -1.348122866418196E-12  -1.417242534826384E-12
  -1.489906039040793E-12  -1.566295074990026E-12  -1.646600654319537E-12
  -1.731023582016142E-12  -1.819774958520600E-12  -1.913076707583891E-12
  -2.011162131187020E-12  -2.114276492911904E-12  -2.222677631222093E-12
  -2.336636604186732E-12  -2.456438367259948E-12  -2.582382485810411E-12
  -2.714783884182643E-12  -2.853973633163221E-12  -3.000299777820728E-12
  -3.154128207789571E-12  -3.315843572173728E-12  -3.485850241358024E-12
  -3.664573318132039E-12  -3.852459700654772E-12  -4.049979199918053E-12
  -4.257625714502792E-12  -4.475918465565594E-12  -4.705403295143491E-12
  -4.946654031023465E-12  -5.200273921589323E-12  -5.466897144233648E-12
  -5.747190391106722E-12  -6.041854536167124E-12  -6.351626387702755E-12
  -6.677280530704053E-12  -7.019631263696160E-12  -7.379534634873179E-12
  -7.757890582625200E-12  -8.155645185810937E-12  -8.573793029402091E-12
  -9.013379691414767E-12  -9.475504357346401E-12  -9.961322568654803E-12
  -1.047204911215244E-11  -1.100896105753993E-11  -1.157340095067409E-11
  -1.216678017055509E-11  -1.279058245842595E-11  -1.344636762780926E-11
  -1.413577546475707E-11  -1.486052982806621E-11  -1.562244295971151E-11
  -1.642342001627367E-11  -1.726546383269325E-11  -1.815067993026101E-11
  -1.908128178136660E-11  -2.005959634417000E-11  -2.108806988103291E-11
  -2.216927407525992E-11  -2.330591246144228E-11  -2.450082718548260E-11
  -2.575700611120342E-11  -2.707759029130705E-11  -2.846588182136849E-11
  -2.992535209649748E-11  -3.145965049131441E-11  -3.307261348494337E-11
  -3.476827425383605E-11  -3.655087275641333E-11  -3.842486633473807E-11
  -4.039494085972628E-11  -4.246602244776415E-11  -4.464328977802310E-11
  -4.693218704127322E-11  -4.933843755256701E-11  -5.186805806183116E-11
  -5.452737379814603E-11  -5.732303428532494E-11  -6.026202996834010E-11
  -6.335170969216195E-11  -6.659979907671339E-11  -7.001441983388315E-11
  -7.360411007488941E-11  -7.737784565877191E-11  -8.134506263538506E-11
  -8.551568083900347E-11  -8.990012869152928E-11  -9.450936927731439E-11
  -9.935492775478425E-11  -1.044489201734037E-10  -1.098040837680244E-10
  -1.154338088063586E-10  -1.213521720692007E-10  -1.275739720470967E-10
  -1.341147659414652E-10  -1.409909085626681E-10  -1.482195932222841E-10
  -1.558188947218184E-10  -1.638078145453183E-10  -1.722063283688851E-10
  -1.810354360058528E-10  -1.903172139124998E-10  -2.000748703855599E-10
  -2.103328035895199E-10  -2.211166625587800E-10  -2.324534113271742E-10
  -2.443713963451736E-10  -2.569004173533168E-10  -2.700718018890297E-10
  -2.839184836131202E-10  -2.984750846517338E-10  -3.137780021596237E-10
  -3.298654993211422E-10  -3.467778010164166E-10  -3.645571943918873E-10
  -3.832481345865964E-10  -4.028973558785307E-10  -4.235539885288603E-10
  -4.452696816161403E-10  -4.680987321675567E-10  -4.920982209099813E-10
  -5.173281549801926E-10  -5.438516179509820E-10  -5.717349275481568E-10
  -6.010478014526844E-10  -6.318635316024188E-10  -6.642591674290768E-10
  -6.983157084885093E-10  -7.341183069657057E-10  -7.717564805607521E-10
  -8.113243362878114E-10  -8.529208057465145E-10  -8.966498924538278E-10
  -9.426209318545367E-10  -9.909488646602633E-10  -1.041754524200159E-09
  -1.095164938501455E-09  -1.151313647854896E-09  -1.210341038658659E-09
  -1.272394694375208E-09  -1.337629764478130E-09  -1.406209352352858E-09
  -1.478304922740652E-09  -1.554096731072711E-09  -1.633774273566810E-09
  -1.717536760558972E-09  -1.805593615269942E-09  -1.898164997368430E-09
  -1.995482351855411E-09  -2.097788989956491E-09  -2.205340695853862E-09
  -2.318406365156712E-09  -2.437268680145635E-09  -2.562224812652532E-09
  -2.693587170262947E-09  -2.831684174618783E-09  -2.976861083532645E-09
  -3.129480854852077E-09  -3.289925050890999E-09  -3.458594796256512E-09
  -3.635911776160193E-09  -3.822319293636506E-09  -4.018283376273741E-09
  -4.224293940714623E-09  -4.440866018018104E-09  -4.668541040668511E-09
  -4.907888193669836E-09  -5.159505845506064E-09  -5.424023031065398E-09
  -5.702101020423205E-09  -5.994435006583556E-09  -6.301755805897975E-09
  -6.624831677152803E-09  -6.964470288379206E-09  -7.321520693940311E-09
  -7.696875466767259E-09  -8.091472937885416E-09  -8.506299537321037E-09
  -8.942392255697711E-09  -9.400841223322448E-09  -9.882792471487620E-09
  -1.038945076341831E-08  -1.092208260217976E-08  -1.148201942687864E-08
  -1.207066090966227E-08  -1.268947846063608E-08  -1.334001890641062E-08
  -1.402390836522190E-08  -1.474285629288691E-08  -1.549865978169358E-08
  -1.629320798848716E-08  -1.712848692880930E-08  -1.800658439514061E-08
  -1.892969517791544E-08  -1.990012656855679E-08  -2.092030410132517E-08
  -2.199277761238863E-08  -2.312022762721813E-08  -2.430547203799358E-08
  -2.555147315722494E-08  -2.686134510862196E-08  -2.823836160343011E-08
  -2.968596412658716E-08  -3.120777051900752E-08  -3.280758404169633E-08
  -3.448940282680718E-08  -3.625742989948188E-08  -3.811608364304776E-08
  -4.007000891267592E-08  -4.212408850875081E-08  -4.428345547483568E-08
  -4.655350585827777E-08  -4.893991221140267E-08  -5.144863777143243E-08
  -5.408595123060060E-08  -5.685844255041116E-08  -5.977303937476742E-08
  -6.283702420196937E-08  -6.605805270950074E-08  -6.944417275623877E-08
  -7.300384463071151E-08  -7.674596191813763E-08  -8.067987389632912E-08
  -8.481540884915913E-08  -8.916289852973138E-08  -9.373320390384006E-08
  -9.853774245212286E-08  -1.035885163759868E-07  -1.088981427855252E-07
  -1.144798850367848E-07  -1.203476859264920E-07  -1.265162023827623E-07
  -1.330008420223916E-07  -1.398178016897272E-07  -1.469841077633754E-07
  -1.545176586290158E-07  -1.624372693578356E-07  -1.707627185950044E-07
  -1.795147978589475E-07  -1.887153634465899E-07  -1.983873908790226E-07
  -2.085550321388955E-07  -2.192436760202363E-07  -2.304800112196810E-07
  -2.422920930074461E-07  -2.547094131106727E-07  -2.677629731169890E-07
  -2.814853619198451E-07  -2.959108366511345E-07  -3.110754082451163E-07
  -3.270169310795739E-07  -3.437751972319252E-07  -3.613920356274527E-07
  -3.799114161582406E-07  -3.993795593218074E-07  -4.198450509735638E-07
  -4.413589637288966E-07  -4.639749837347770E-07  -4.877495444646547E-07
  -5.127419671478004E-07  -5.390146083402822E-07  -5.666330151655725E-07
  -5.956660882635239E-07  -6.261862532526421E-07  -6.582696408784099E-07
  -6.919962763170316E-07  -7.274502780877220E-07  -7.647200672682661E-07
  -8.038985873388557E-07  -8.450835349789548E-07  -8.883776030594441E-07
  -9.338887356395825E-07  -9.817303962208272E-07  -1.032021849540537E-06
  -1.084888457672642E-06  -1.140461991364041E-06  -1.198880957187204E-06
  -1.260290941230248E-06  -1.324844970412877E-06  -1.392703892165516E-06
  -1.464036773392564E-06  -1.539021319782680E-06  -1.617844316410400E-06
  -1.700702090893391E-06  -1.787800999785631E-06  -1.879357940060324E-06
  -1.975600886459135E-06  -2.076769455928008E-06  -2.183115501125413E-06
  -2.294903733886403E-06  -2.412412380149157E-06  -2.535933868598189E-06
  -2.665775553879042E-06  -2.802260476677105E-06  -2.945728162180263E-06
  -3.096535459537469E-06  -3.255057423133956E-06  -3.421688239206059E-06
  -3.596842199138148E-06  -3.780954721986690E-06  -3.974483428888681E-06
  -4.177909272047784E-06  -4.391737720557739E-06  -4.616500006362130E-06
  -4.852754433340046E-06  -5.101087752333779E-06  -5.362116606050381E-06
  -5.636489046607196E-06  -5.924886129873829E-06  -6.228023590385941E-06
  -6.546653600620213E-06  -6.881566619252782E-06  -7.233593332337933E-06
  -7.603606692617192E-06  -7.992524061330782E-06  -8.401309458020657E-06
  -8.830975923668411E-06  -9.282588002401537E-06  -9.757264348387440E-06
  -1.025618046350696E-05  -1.078057157260268E-05  -1.133173564327953E-05
  -1.191103655679472E-05  -1.251990743848197E-05  -1.315985415477049E-05
  -1.383245898564150E-05  -1.453938448049289E-05  -1.528237750759486E-05
  -1.606327350533476E-05  -1.688400094638512E-05  -1.774658602440466E-05
  -1.865315757484000E-05  -1.960595224108770E-05  -2.060731989775019E-05
  -2.165972934432842E-05  -2.276577428177994E-05  -2.392817958644322E-05
  -2.514980789524535E-05  -2.643366651811596E-05  -2.778291469260031E-05
  -2.920087119835677E-05  -3.069102234808892E-05  -3.225703037375024E-05
  -3.390274222699727E-05  -3.563219881376785E-05  -3.744964468415013E-05
  -3.935953819953113E-05  -4.136656219941729E-05  -4.347563519275148E-05
  -4.569192309827078E-05  -4.802085156027029E-05  -5.046811886730169E-05
  -5.303970950262533E-05  -5.574190835618967E-05  -5.858131562967160E-05
  -6.156486246740451E-05  -6.469982734725906E-05  -6.799385326745541E-05
  -7.145496576676389E-05  -7.509159181674439E-05  -7.891257962724780E-05
  -8.292721940725543E-05  -8.714526512610027E-05  -9.157695732054595E-05
  -9.623304699683542E-05  -1.011248206776083E-04  -1.062641266462869E-04
  -1.116634024440580E-04  -1.173357036759832E-04  -1.232947341859360E-04
  -1.295548776625272E-04  -1.361312307398265E-04  -1.430396376606833E-04
  -1.502967265720184E-04  -1.579199475245018E-04  -1.659276122527859E-04
  -1.743389358139454E-04  -1.831740801660474E-04  -1.924541997714115E-04
  -2.022014893123323E-04  -2.124392336103884E-04  -2.231918598438652E-04
  -2.344849921614149E-04  -2.463455087929715E-04  -2.588016017637074E-04
  -2.718828393190581E-04  -2.856202311738308E-04  -3.000462967012163E-04
  -3.151951361821736E-04  -3.311025052387243E-04  -3.478058925792153E-04
  -3.653446011871356E-04  -3.837598330892096E-04  -4.030947778420918E-04
  -4.233947048815432E-04  -4.447070598805486E-04  -4.670815652682971E-04
  -4.905703250641589E-04  -5.152279341852630E-04  -5.411115923892769E-04
  -5.682812230177897E-04  -5.967995967085252E-04  -6.267324602471544E-04
  -6.581486707330742E-04  -6.911203352349267E-04  -7.257229561140566E-04
  -7.620355821957312E-04  -8.001409659689667E-04  -8.401257269964625E-04
  -8.820805217162221E-04  -9.261002198157808E-04  -9.722840873588419E-04
  -1.020735976841866E-03  -1.071564524355102E-03  -1.124883354018692E-03
  -1.180811289859328E-03  -1.239472575286755E-03  -1.300997100321691E-03
  -1.365520636717319E-03  -1.433185081106976E-03  -1.504138706296490E-03
  -1.578536420807065E-03  -1.656540036756765E-03  -1.738318546150816E-03
  -1.824048405629350E-03  -1.913913829697389E-03  -2.008107092435149E-03
  -2.106828837656782E-03  -2.210288397451771E-03  -2.318704119007056E-03
  -2.432303699565767E-03  -2.551324529333518E-03  -2.676014042093328E-03
  -2.806630073234210E-03  -2.943441224839214E-03  -3.086727237410986E-03
  -3.236779367741689E-03  -3.393900772354009E-03  -3.558406895854401E-03
  -3.730625863445236E-03  -3.910898876741217E-03  -4.099580611924234E-03
  -4.297039619151859E-03  -4.503658722003957E-03  -4.719835415613681E-03
  -4.945982261976667E-03  -5.182527280770750E-03  -5.429914333844275E-03
  -5.688603501341712E-03  -5.959071447236970E-03  -6.241811771826197E-03
  -6.537335348504143E-03  -6.846170641901189E-03  -7.168864004194833E-03
  -7.505979946132843E-03  -7.858101379005144E-03  -8.225829823489147E-03
  -8.609785580958771E-03  -9.010607862492472E-03  -9.428954870446407E-03
  -9.865503827061917E-03  -1.032095094416651E-02  -1.079601132759246E-02
  -1.129141880948193E-02  -1.180792570117585E-02  -1.234630245888556E-02
  -1.290733725383519E-02  -1.349183543802949E-02  -1.410061889624971E-02
  -1.473452527431814E-02  -1.539440707308638E-02  -1.608113059701544E-02
  -1.679557474560947E-02  -1.753862963535910E-02  -1.831119503924236E-02
  -1.911417863021706E-02  -1.994849401454612E-02  -2.081505854020219E-02
  -2.171479086503550E-02  -2.264860826884992E-02  -2.361742369302480E-02
  -2.462214249087242E-02  -2.566365887151609E-02  -2.674285201975139E-02
  -2.786058187411262E-02  -2.901768454521813E-02  -3.021496735645432E-02
  -3.145320348916134E-02  -3.273312621475970E-02  -3.405542269670864E-02
  -3.542072734583667E-02  -3.682961471348417E-02  -3.828259190803792E-02
  -3.978009052188921E-02  -4.132245805761770E-02  -4.290994884433244E-02
  -4.454271443764844E-02  -4.622079349974612E-02  -4.794410115943146E-02
  -4.971241785611068E-02  -5.152537767615235E-02  -5.338245619531826E-02
  -5.528295784679216E-02  -5.722600284093019E-02  -5.921051367020637E-02
  -6.123520124098565E-02  -6.329855068279723E-02  -6.539880689569390E-02
  -6.753395990716138E-02  -6.970173012187765E-02  -7.189955356044542E-02
  -7.412456719707561E-02  -7.637359452103104E-02  -7.864313146249943E-02
  -8.092933284037432E-02  -8.322799950714342E-02  -8.553456638467259E-02
  -8.784409160396760E-02  -9.015124698192567E-02  -9.245031008844115E-02
  -9.473515817779746E-02  -9.699926427883983E-02  -9.923569575860824E-02
  -1.014371156936208E-01  -1.035957874013599E-01  -1.057035825012417E-01
  -1.077519928889117E-01  -1.097321470194006E-01  -1.116348309028359E-01
  -1.134505142201870E-01  -1.151693819650315E-01  -1.167813720096190E-01
  -1.182762189784630E-01  -1.196435047891993E-01  -1.208727161872675E-01
  -1.219533095568018E-01  -1.228747832336406E-01  -1.236267574761701E-01
  -1.241990621644440E-01  -1.245818321962842E-01  -1.247656104295583E-01
  -1.247414578813440E-01  -1.245010707361550E-01  -1.240369035359907E-01
  -1.233422977241157E-01  -1.224116144919926E-01  -1.212403706349460E-01
  -1.198253758577723E-01  -1.181648696881178E-01  -1.162586558553322E-01
  -1.141082316788865E-01  -1.117169096875815E-01  -1.090899283641350E-01
  -1.062345485861092E-01  -1.031601320217157E-01  -9.987819744769352E-02
  -9.640245069753921E-02  -9.274878373518945E-02  -8.893523819666484E-02
  -8.498192866691960E-02  -8.091092097957696E-02  -7.674606096313018E-02
  -7.251274932978199E-02  -6.823765883425946E-02  -6.394839044215093E-02
  -5.967306606277226E-02  -5.543985644139492E-02  -5.127644408924151E-02
  -4.720942267305597E-02  -4.326363610115481E-02  -3.946146263562997E-02
  -3.582205172912577E-02  -3.236052391854832E-02  -2.908714698485607E-02
  -2.600650467232770E-02  -2.311667750165055E-02  -2.040845854082701E-02
  -1.786939200115450E-02  -1.550012533271644E-02  -1.330451055628062E-02
  -1.128542365227203E-02  -9.444686211418918E-03  -7.782978578725785E-03
  -6.299744014480524E-03  -4.993083536255716E-03  -3.859641282285720E-03
  -2.894480453743908E-03  -2.090950156416582E-03  -1.440543776567327E-03
  -9.327498975060244E-04  -5.548971990462226E-04  -2.919952885693800E-04
  -1.265739970069957E-04  -3.852434289419726E-05  -4.945129509714707E-06
   0.000000000000000E+00   0.000000000000000E+00   0.000000000000000E+00
   0.000000000000000E+00   0.000000000000000E+00   0.000000000000000E+00
   0.000000000000000E+00   0.000000000000000E+00   0.000000000000000E+00
   0.000000000000000E+00   0.000000000000000E+00   0.000000000000000E+00
   0.000000000000000E+00   0.000000000000000E+00   0.000000000000000E+00
   0.000000000000000E+00   0.000000000000000E+00   0.000000000000000E+00
   0.000000000000000E+00   0.000000000000000E+00   0.000000000000000E+00
   0.000000000000000E+00   0.000000000000000E+00   0.000000000000000E+00
   0.000000000000000E+00   0.000000000000000E+00   0.000000000000000E+00
   0.000000000000000E+00   0.000000000000000E+00   0.000000000000000E+00
   0.000000000000000E+00   0.000000000000000E+00   0.000000000000000E+00
   0.000000000000000E+00   0.000000000000000E+00   0.000000000000000E+00
   0.000000000000000E+00   0.000000000000000E+00   0.000000000000000E+00
   0.000000000000000E+00   0.000000000000000E+00   0.000000000000000E+00
   0.000000000000000E+00   0.000000000000000E+00   0.000000000000000E+00
   0.000000000000000E+00   0.000000000000000E+00   0.000000000000000E+00
   0.000000000000000E+00   0.000000000000000E+00   0.000000000000000E+00
   0.000000000000000E+00   0.000000000000000E+00   0.000000000000000E+00
   0.000000000000000E+00   0.000000000000000E+00   0.000000000000000E+00
   0.000000000000000E+00   0.000000000000000E+00   0.000000000000000E+00
   0.000000000000000E+00   0.000000000000000E+00   0.000000000000000E+00
   0.000000000000000E+00   0.000000000000000E+00   0.000000000000000E+00
   0.000000000000000E+00   0.000000000000000E+00   0.000000000000000E+00
   0.000000000000000E+00   0.000000000000000E+00   0.000000000000000E+00
   0.000000000000000E+00   0.000000000000000E+00   0.000000000000000E+00
   0.000000000000000E+00   0.000000000000000E+00   0.000000000000000E+00
   0.000000000000000E+00   0.000000000000000E+00   0.000000000000000E+00
   0.000000000000000E+00   0.000000000000000E+00   0.000000000000000E+00
   0.000000000000000E+00   0.000000000000000E+00   0.000000000000000E+00
   0.000000000000000E+00   0.000000000000000E+00   0.000000000000000E+00
   0.000000000000000E+00   0.000000000000000E+00   0.000000000000000E+00
   0.000000000000000E+00   0.000000000000000E+00   0.000000000000000E+00
   0.000000000000000E+00   0.000000000000000E+00   0.000000000000000E+00
   0.000000000000000E+00   0.000000000000000E+00   0.000000000000000E+00
   0.000000000000000E+00   0.000000000000000E+00   0.000000000000000E+00
   0.000000000000000E+00   0.000000000000000E+00   0.000000000000000E+00
   0.000000000000000E+00   0.000000000000000E+00   0.000000000000000E+00
   0.000000000000000E+00   0.000000000000000E+00   0.000000000000000E+00
   0.000000000000000E+00   0.000000000000000E+00   0.000000000000000E+00
   0.000000000000000E+00   0.000000000000000E+00   0.000000000000000E+00
   0.000000000000000E+00   0.000000000000000E+00   0.000000000000000E+00
   0.000000000000000E+00   0.000000000000000E+00   0.000000000000000E+00
   0.000000000000000E+00   0.000000000000000E+00   0.000000000000000E+00
   0.000000000000000E+00   0.000000000000000E+00   0.000000000000000E+00
   0.000000000000000E+00   0.000000000000000E+00   0.000000000000000E+00
   0.000000000000000E+00   0.000000000000000E+00   0.000000000000000E+00
   0.000000000000000E+00   0.000000000000000E+00   0.000000000000000E+00
   0.000000000000000E+00   0.000000000000000E+00   0.000000000000000E+00
   0.000000000000000E+00   0.000000000000000E+00   0.000000000000000E+00
   0.000000000000000E+00   0.000000000000000E+00   0.000000000000000E+00
   0.000000000000000E+00   0.000000000000000E+00   0.000000000000000E+00
   0.000000000000000E+00   0.000000000000000E+00   0.000000000000000E+00
   0.000000000000000E+00   0.000000000000000E+00   0.000000000000000E+00
   0.000000000000000E+00   0.000000000000000E+00   0.000000000000000E+00
   0.000000000000000E+00   0.000000000000000E+00   0.000000000000000E+00
   0.000000000000000E+00   0.000000000000000E+00   0.000000000000000E+00
   0.000000000000000E+00   0.000000000000000E+00   0.000000000000000E+00
   0.000000000000000E+00   0.000000000000000E+00   0.000000000000000E+00
   0.000000000000000E+00   0.000000000000000E+00   0.000000000000000E+00
   0.000000000000000E+00   0.000000000000000E+00   0.000000000000000E+00
   0.000000000000000E+00   0.000000000000000E+00   0.000000000000000E+00
   0.000000000000000E+00   0.000000000000000E+00   0.000000000000000E+00
   0.000000000000000E+00   0.000000000000000E+00   0.000000000000000E+00
   0.000000000000000E+00   0.000000000000000E+00   0.000000000000000E+00
   0.000000000000000E+00   0.000000000000000E+00   0.000000000000000E+00
   0.000000000000000E+00   0.000000000000000E+00   0.000000000000000E+00
   0.000000000000000E+00   0.000000000000000E+00   0.000000000000000E+00
   0.000000000000000E+00   0.000000000000000E+00   0.000000000000000E+00
   0.000000000000000E+00   0.000000000000000E+00   0.000000000000000E+00
   0.000000000000000E+00   0.000000000000000E+00   0.000000000000000E+00
   0.000000000000000E+00   0.000000000000000E+00   0.000000000000000E+00
   0.000000000000000E+00   0.000000000000000E+00   0.000000000000000E+00
   0.000000000000000E+00   0.000000000000000E+00   0.000000000000000E+00
   0.000000000000000E+00   0.000000000000000E+00   0.000000000000000E+00
   0.000000000000000E+00   0.000000000000000E+00   0.000000000000000E+00
   0.000000000000000E+00   0.000000000000000E+00   0.000000000000000E+00
   0.000000000000000E+00   0.000000000000000E+00   0.000000000000000E+00
   0.000000000000000E+00   0.000000000000000E+00   0.000000000000000E+00
   0.000000000000000E+00   0.000000000000000E+00   0.000000000000000E+00
   0.000000000000000E+00   0.000000000000000E+00   0.000000000000000E+00
   0.000000000000000E+00   0.000000000000000E+00   0.000000000000000E+00
   0.000000000000000E+00   0.000000000000000E+00   0.000000000000000E+00
   0.000000000000000E+00   0.000000000000000E+00   0.000000000000000E+00
   0.000000000000000E+00   0.000000000000000E+00   0.000000000000000E+00
   0.000000000000000E+00   0.000000000000000E+00   0.000000000000000E+00
   0.000000000000000E+00   0.000000000000000E+00   0.000000000000000E+00
   0.000000000000000E+00   0.000000000000000E+00   0.000000000000000E+00
   0.000000000000000E+00   0.000000000000000E+00   0.000000000000000E+00
   0.000000000000000E+00   0.000000000000000E+00   0.000000000000000E+00
   0.000000000000000E+00   0.000000000000000E+00   0.000000000000000E+00
   0.000000000000000E+00   0.000000000000000E+00   0.000000000000000E+00
   0.000000000000000E+00   0.000000000000000E+00   0.000000000000000E+00
   0.000000000000000E+00   0.000000000000000E+00   0.000000000000000E+00
   0.000000000000000E+00   0.000000000000000E+00   0.000000000000000E+00
   0.000000000000000E+00   0.000000000000000E+00   0.000000000000000E+00
   0.000000000000000E+00   0.000000000000000E+00   0.000000000000000E+00
   0.000000000000000E+00   0.000000000000000E+00   0.000000000000000E+00
   0.000000000000000E+00   0.000000000000000E+00   0.000000000000000E+00
   0.000000000000000E+00   0.000000000000000E+00   0.000000000000000E+00
   0.000000000000000E+00   0.000000000000000E+00   0.000000000000000E+00
   0.000000000000000E+00   0.000000000000000E+00   0.000000000000000E+00
   0.000000000000000E+00   0.000000000000000E+00   0.000000000000000E+00
   0.000000000000000E+00   0.000000000000000E+00   0.000000000000000E+00
   0.000000000000000E+00   0.000000000000000E+00   0.000000000000000E+00
   0.000000000000000E+00   0.000000000000000E+00   0.000000000000000E+00
   0.000000000000000E+00   0.000000000000000E+00
      </PP_QIJL.3.3.2>
      <PP_QIJL.3.4.0 first_index="3" second_index="4" composite_index="9" angular_momentum="0" size="1211">
   1.941333419399805E-10   1.990478508677438E-10   2.040867711802419E-10
   2.092532523666177E-10   2.145505236457096E-10   2.199818959844161E-10
   2.255507641671587E-10   2.312606089177328E-10   2.371149990748718E-10
   2.431175938228894E-10   2.492721449787866E-10   2.555824993372598E-10
   2.620526010750726E-10   2.686864942162938E-10   2.754883251599458E-10
   2.824623452716356E-10   2.896129135407976E-10   2.969444993052046E-10
   3.044616850444464E-10   3.121691692441322E-10   3.200717693325924E-10
   3.281744246919301E-10   3.364821997452947E-10   3.450002871223101E-10
   3.537340109046386E-10   3.626888299537014E-10   3.718703413226474E-10
   3.812842837546906E-10   3.909365412700112E-10   4.008331468434612E-10
   4.109802861753662E-10   4.213843015577902E-10   4.320516958386735E-10
   4.429891364863235E-10   4.542034597567996E-10   4.657016749667931E-10
   4.774909688746770E-10   4.895787101724652E-10   5.019724540914804E-10
   5.146799471246239E-10   5.277091318681777E-10   5.410681519861892E-10
   5.547653573005229E-10   5.688093090097695E-10   5.832087850402760E-10
   5.979727855326268E-10   6.131105384670276E-10   6.286315054310913E-10
   6.445453875336336E-10   6.608621314681866E-10   6.775919357299945E-10
   6.947452569904103E-10   7.123328166326506E-10   7.303656074530043E-10
   7.488549005316945E-10   7.678122522776569E-10   7.872495116516748E-10
   8.071788275723619E-10   8.276126565096259E-10   8.485637702703716E-10
   8.700452639812839E-10   8.920705642737095E-10   9.146534376757328E-10
   9.378079992167012E-10   9.615487212495778E-10   9.858904424966194E-10
   1.010848377324064E-09   1.036438125251598E-09   1.062675680702555E-09
   1.089577443000955E-09   1.117160226621602E-09   1.145441271699672E-09
   1.174438254806358E-09   1.204169299997289E-09   1.234652990140660E-09
   1.265908378532107E-09   1.297955000803637E-09   1.330812887134028E-09
   1.364502574768328E-09   1.399045120854306E-09   1.434462115603827E-09
   1.470775695787441E-09   1.508008558570571E-09   1.546183975699965E-09
   1.585325808049299E-09   1.625458520532965E-09   1.666607197397446E-09
   1.708797557899765E-09   1.752055972382841E-09   1.796409478757810E-09
   1.841885799403570E-09   1.888513358494160E-09   1.936321299764779E-09
   1.985339504727545E-09   2.035598611348410E-09   2.087130033196845E-09
   2.139965979080339E-09   2.194139473175919E-09   2.249684375671320E-09
   2.306635403928690E-09   2.365028154184023E-09   2.424899123795957E-09
   2.486285734057775E-09   2.549226353586903E-09   2.613760322306532E-09
   2.679927976034285E-09   2.747770671693406E-09   2.817330813162141E-09
   2.888651877777503E-09   2.961778443509995E-09   3.036756216826234E-09
   3.113632061256943E-09   3.192454026688143E-09   3.273271379393838E-09
   3.356134632829010E-09   3.441095579202093E-09   3.528207321846742E-09
   3.617524308413098E-09   3.709102364899262E-09   3.802998730544321E-09
   3.899272093604636E-09   3.997982628035866E-09   4.099192031103552E-09
   4.202963561945857E-09   4.309362081112507E-09   4.418454091104627E-09
   4.530307777940902E-09   4.644993053775957E-09   4.762581600597618E-09
   4.883146915030410E-09   5.006764354273185E-09   5.133511183199731E-09
   5.263466622651703E-09   5.396711898954091E-09   5.533330294684214E-09
   5.673407200725845E-09   5.817030169641166E-09   5.964288970393820E-09
   6.115275644457236E-09   6.270084563343426E-09   6.428812487587998E-09
   6.591558627228482E-09   6.758424703813632E-09   6.929515013982467E-09
   7.104936494652872E-09   7.284798789860381E-09   7.469214319289016E-09
   7.658298348537032E-09   7.852169061161308E-09   8.050947632545742E-09
   8.254758305639392E-09   8.463728468612092E-09   8.677988734475874E-09
   8.897673022721960E-09   9.122918643024505E-09   9.353866381063115E-09
   9.590660586518138E-09   9.833449263293467E-09   1.008238416202330E-08
   1.033762087492084E-08   1.059931893302788E-08   1.086764190592642E-08
   1.114275750397441E-08   1.142483768312960E-08   1.171405875242706E-08
   1.201060148417721E-08   1.231465122695402E-08   1.262639802144291E-08
   1.294603671922176E-08   1.327376710454873E-08   1.360979401923287E-08
   1.395432749066636E-08   1.430758286309728E-08   1.466978093222593E-08
   1.504114808320839E-08   1.542191643215323E-08   1.581232397120097E-08
   1.621261471727534E-08   1.662303886460070E-08   1.704385294108042E-08
   1.747531996863344E-08   1.791770962759049E-08   1.837129842525124E-08
   1.883636986870894E-08   1.931321464204994E-08   1.980213078803866E-08
   2.030342389440259E-08   2.081740728483227E-08   2.134440221481684E-08
   2.188473807243728E-08   2.243875258424184E-08   2.300679202633446E-08
   2.358921144080554E-08   2.418637485764237E-08   2.479865552225718E-08
   2.542643612877421E-08   2.607010905922365E-08   2.673007662878936E-08
   2.740675133726583E-08   2.810055612688062E-08   2.881192464664276E-08
   2.954130152338421E-08   3.028914263966148E-08   3.105591541869293E-08
   3.184209911650911E-08   3.264818512149804E-08   3.347467726153461E-08
   3.432209211888362E-08   3.519095935307499E-08   3.608182203195278E-08
   3.699523697110329E-08   3.793177508187742E-08   3.889202172822130E-08
   3.987657709254095E-08   4.088605655082859E-08   4.192109105728391E-08
   4.298232753867379E-08   4.407042929867299E-08   4.518607643244167E-08
   4.632996625169759E-08   4.750281372054775E-08   4.870535190235458E-08
   4.993833241791239E-08   5.120252591522319E-08   5.249872255116496E-08
   5.382773248535131E-08   5.519038638649509E-08   5.658753595158814E-08
   5.802005443822473E-08   5.948883721040048E-08   6.099480229812633E-08
   6.253889097121073E-08   6.412206832756457E-08   6.574532389639951E-08
   6.740967225669627E-08   6.911615367132646E-08   7.086583473722998E-08
   7.265980905204771E-08   7.449919789763120E-08   7.638515094085458E-08
   7.831884695216474E-08   8.030149454232411E-08   8.233433291779981E-08
   8.441863265527637E-08   8.655569649577441E-08   8.874686015886975E-08
   9.099349317752539E-08   9.329699975405430E-08   9.565881963775070E-08
   9.808042902473713E-08   1.005633414805893E-07   1.031091088863165E-07
   1.057193224082867E-07   1.083956134927052E-07   1.111396548852660E-07
   1.139531616766132E-07   1.168378923742684E-07   1.197956500016891E-07
   1.228282832251503E-07   1.259376875091494E-07   1.291258063010581E-07
   1.323946322457617E-07   1.357462084310440E-07   1.391826296644963E-07
   1.427060437827497E-07   1.463186529938451E-07   1.500227152535855E-07
   1.538205456767236E-07   1.577145179838734E-07   1.617070659850450E-07
   1.658006851007306E-07   1.699979339214951E-07   1.743014358070402E-07
   1.787138805257470E-07   1.832380259357180E-07   1.878766997083681E-07
   1.926328010956463E-07   1.975093027419855E-07   2.025092525421181E-07
   2.076357755459163E-07   2.128920759114447E-07   2.182814389074508E-07
   2.238072329665381E-07   2.294729117903102E-07   2.352820165077978E-07
   2.412381778885171E-07   2.473451186115452E-07   2.536066555920249E-07
   2.600267023665576E-07   2.666092715389719E-07   2.733584772879943E-07
   2.802785379383929E-07   2.873737785971956E-07   2.946486338566313E-07
   3.021076505654869E-07   3.097554906706007E-07   3.175969341302806E-07
   3.256368819014538E-07   3.338803590024250E-07   3.423325176531493E-07
   3.509986404949822E-07   3.598841438919215E-07   3.689945813153967E-07
   3.783356468147275E-07   3.879131785754134E-07   3.977331625674760E-07
   4.078017362861402E-07   4.181251925871799E-07   4.287099836193318E-07
   4.395627248562306E-07   4.506901992303799E-07   4.620993613717479E-07
   4.737973419536257E-07   4.857914521484688E-07   4.980891881965059E-07
   5.106982360899546E-07   5.236264763757888E-07   5.368819890800365E-07
   5.504730587566987E-07   5.644081796644330E-07   5.786960610742345E-07
   5.933456327114313E-07   6.083660503353876E-07   6.237667014604034E-07
   6.395572112213742E-07   6.557474483878859E-07   6.723475315304756E-07
   6.893678353429363E-07   7.068189971245898E-07   7.247119234265814E-07
   7.430577968663519E-07   7.618680831145193E-07   7.811545380585567E-07
   8.009292151477193E-07   8.212044729238067E-07   8.419929827424750E-07
   8.633077366898795E-07   8.851620556996409E-07   9.075695978751515E-07
   9.305443670224404E-07   9.541007213989217E-07   9.782533826834574E-07
   1.003017445173370E-06   1.028408385214108E-06   1.054442070867469E-06
   1.081134771824401E-06   1.108503169568553E-06   1.136564367796945E-06
   1.165335903104223E-06   1.194835755937182E-06   1.225082361826389E-06
   1.256094622901877E-06   1.287891919700149E-06   1.320494123269792E-06
   1.353921607583287E-06   1.388195262262749E-06   1.423336505627492E-06
   1.459367298071609E-06   1.496310155779863E-06   1.534188164790448E-06
   1.573024995413392E-06   1.612844917013564E-06   1.653672813167521E-06
   1.695534197203630E-06   1.738455228135130E-06   1.782462726996090E-06
   1.827584193590391E-06   1.873847823664219E-06   1.921282526512718E-06
   1.969917943031791E-06   2.019784464226286E-06   2.070913250186055E-06
   2.123336249541772E-06   2.177086219412534E-06   2.232196745857727E-06
   2.288702264845856E-06   2.346638083753364E-06   2.406040403406868E-06
   2.466946340682486E-06   2.529393951676309E-06   2.593422255460475E-06
   2.659071258439538E-06   2.726381979322348E-06   2.795396474724953E-06
   2.866157865420389E-06   2.938710363251734E-06   3.013099298725146E-06
   3.089371149299937E-06   3.167573568393408E-06   3.247755415118340E-06
   3.329966784771655E-06   3.414259040093206E-06   3.500684843314018E-06
   3.589298189013980E-06   3.680154437809297E-06   3.773310350890645E-06
   3.868824125433478E-06   3.966755430902349E-06   4.067165446271900E-06
   4.170116898187508E-06   4.275674100089251E-06   4.383902992323507E-06
   4.494871183266907E-06   4.608647991488288E-06   4.725304488974623E-06
   4.844913545447762E-06   4.967549873799449E-06   5.093290076672562E-06
   5.222212694217692E-06   5.354398253054326E-06   5.489929316467055E-06
   5.628890535867868E-06   5.771368703556201E-06   5.917452806809484E-06
   6.067234083337552E-06   6.220806078135143E-06   6.378264701767636E-06
   6.539708290125898E-06   6.705237665687242E-06   6.874956200320218E-06
   7.048969879671908E-06   7.227387369177557E-06   7.410320081732986E-06
   7.597882247071694E-06   7.790190982889273E-06   7.987366367758810E-06
   8.189531515882387E-06   8.396812653724281E-06   8.609339198573340E-06
   8.827243839082584E-06   9.050662617835536E-06   9.279735015990055E-06
   9.514604040051410E-06   9.755416310828064E-06   1.000232215462455E-05
   1.025547569672727E-05   1.051503495724071E-05   1.078116194933226E-05
   1.105402277994637E-05   1.133378775304905E-05   1.162063147546613E-05
   1.191473296537985E-05   1.221627576354985E-05   1.252544804732662E-05
   1.284244274752681E-05   1.316745766824150E-05   1.350069560965066E-05
   1.384236449391802E-05   1.419267749424348E-05   1.455185316715095E-05
   1.492011558809221E-05   1.529769449044914E-05   1.568482540801800E-05
   1.608174982106285E-05   1.648871530602592E-05   1.690597568898565E-05
   1.733379120295519E-05   1.777242864911589E-05   1.822216156208375E-05
   1.868327037930760E-05   1.915604261470153E-05   1.964077303661579E-05
   2.013776385025280E-05   2.064732488463831E-05   2.116977378425926E-05
   2.170543620548330E-05   2.225464601787761E-05   2.281774551054674E-05
   2.339508560361334E-05   2.398702606496726E-05   2.459393573241220E-05
   2.521619274134216E-05   2.585418475808234E-05   2.650830921903350E-05
   2.717897357576084E-05   2.786659554617258E-05   2.857160337193652E-05
   2.929443608228580E-05   3.003554376437010E-05   3.079538784031013E-05
   3.157444135111858E-05   3.237318924765366E-05   3.319212868877487E-05
   3.403176934687583E-05   3.489263372097148E-05   3.577525745752173E-05
   3.668018967917849E-05   3.760799332164492E-05   3.855924547884327E-05
   3.953453775658948E-05   4.053447663497772E-05   4.155968383968446E-05
   4.261079672240237E-05   4.368846865062402E-05   4.479336940699587E-05
   4.592618559847014E-05   4.708762107548741E-05   4.827839736142531E-05
   4.949925409255754E-05   5.075094946876971E-05   5.203426071528470E-05
   5.334998455565668E-05   5.469893769629624E-05   5.608195732279717E-05
   5.749990160833928E-05   5.895365023444779E-05   6.044410492439675E-05
   6.197218998954730E-05   6.353885288892122E-05   6.514506480231286E-05
   6.679182121725058E-05   6.848014253012528E-05   7.021107466180741E-05
   7.198568968808442E-05   7.380508648525294E-05   7.567039139120872E-05
   7.758275888238458E-05   7.954337226688922E-05   8.155344439421291E-05
   8.361421838186676E-05   8.572696835933261E-05   8.789300022970598E-05
   9.011365244942149E-05   9.239029682645824E-05   9.472433933742766E-05
   9.711722096395446E-05   9.957041854876929E-05   1.020854456719344E-04
   1.046638535476372E-04   1.073072319419873E-04   1.100172101122629E-04
   1.127954577680598E-04   1.156436860547975E-04   1.185636485600540E-04
   1.215571423431959E-04   1.246260089887853E-04   1.277721356842498E-04
   1.309974563223015E-04   1.343039526286103E-04   1.376936553152298E-04
   1.411686452602869E-04   1.447310547144520E-04   1.483830685347065E-04
   1.521269254459386E-04   1.559649193308939E-04   1.598994005490195E-04
   1.639327772847389E-04   1.680675169257021E-04   1.723061474715590E-04
   1.766512589738058E-04   1.811055050072567E-04   1.856716041736989E-04
   1.903523416382818E-04   1.951505706992056E-04   2.000692143912618E-04
   2.051112671237858E-04   2.102797963535804E-04   2.155779442933591E-04
   2.210089296562689E-04   2.265760494370378E-04   2.322826807302907E-04
   2.381322825865760E-04   2.441283979066291E-04   2.502746553744041E-04
   2.565747714293846E-04   2.630325522786771E-04   2.696518959493866E-04
   2.764367943817418E-04   2.833913355634497E-04   2.905197057057101E-04
   2.978261914613339E-04   3.053151821853645E-04   3.129911722385863E-04
   3.208587633342895E-04   3.289226669286141E-04   3.371877066547839E-04
   3.456588208014993E-04   3.543410648357179E-04   3.632396139700313E-04
   3.723597657747865E-04   3.817069428350626E-04   3.912866954525727E-04
   4.011047043924874E-04   4.111667836751530E-04   4.214788834125832E-04
   4.320470926895630E-04   4.428776424891226E-04   4.539769086620636E-04
   4.653514149401524E-04   4.770078359924959E-04   4.889530005245319E-04
   5.011938944189728E-04   5.137376639179195E-04   5.265916188452858E-04
   5.397632358685191E-04   5.532601617985005E-04   5.670902169263759E-04
   5.812613983959027E-04   5.957818836097887E-04   6.106600336682952E-04
   6.259043968382374E-04   6.415237120503293E-04   6.575269124226062E-04
   6.739231288075010E-04   6.907216933598870E-04   7.079321431232086E-04
   7.255642236305619E-04   7.436278925173334E-04   7.621333231417540E-04
   7.810909082094101E-04   8.005112633974814E-04   8.204052309741432E-04
   8.407838834082197E-04   8.616585269638642E-04   8.830407052746131E-04
   9.049422028908044E-04   9.273750487939227E-04   9.503515198709682E-04
   9.738841443415385E-04   9.979857051297604E-04   1.022669243172734E-03
   1.047948060656604E-03   1.073835724170759E-03   1.100346067770145E-03
   1.127493195934940E-03   1.155291486416252E-03   1.183755592955761E-03
   1.212900447866494E-03   1.242741264461143E-03   1.273293539313550E-03
   1.304573054338064E-03   1.336595878670669E-03   1.369378370334692E-03
   1.402937177673094E-03   1.437289240528141E-03   1.472451791148241E-03
   1.508442354800583E-03   1.545278750066965E-03   1.582979088799000E-03
   1.621561775707530E-03   1.661045507559662E-03   1.701449271955500E-03
   1.742792345654938E-03   1.785094292423547E-03   1.828374960364640E-03
   1.872654478703066E-03   1.917953253984425E-03   1.964291965651334E-03
   2.011691560956676E-03   2.060173249171345E-03   2.109758495042082E-03
   2.160469011452682E-03   2.212326751239288E-03   2.265353898108357E-03
   2.319572856602961E-03   2.375006241060603E-03   2.431676863502969E-03
   2.489607720394818E-03   2.548821978206636E-03   2.609342957712048E-03
   2.671194116947995E-03   2.734399032762251E-03   2.798981380869024E-03
   2.864964914330130E-03   2.932373440374949E-03   3.001230795468684E-03
   3.071560818534312E-03   3.143387322229053E-03   3.216734062172188E-03
   3.291624704016094E-03   3.368082788247758E-03   3.446131692603335E-03
   3.525794591972742E-03   3.607094415666731E-03   3.690053801912829E-03
   3.774695049441433E-03   3.861040066017588E-03   3.949110313767715E-03
   4.038926751145199E-03   4.130509771371824E-03   4.223879137186208E-03
   4.319053911723850E-03   4.416052385346312E-03   4.514891998231074E-03
   4.615589258525824E-03   4.718159655864616E-03   4.822617570035944E-03
   4.928976174585315E-03   5.037247335128175E-03   5.147441502141040E-03
   5.259567597991687E-03   5.373632897961838E-03   5.489642905007901E-03
   5.607601217998590E-03   5.727509393160204E-03   5.849366798453578E-03
   5.973170460599554E-03   6.098914904462335E-03   6.226591984494215E-03
   6.356190707937766E-03   6.487697049476035E-03   6.621093757015384E-03
   6.756360148279818E-03   6.893471897891579E-03   7.032400814607709E-03
   7.173114608379249E-03   7.315576646896920E-03   7.459745701284598E-03
   7.605575680601875E-03   7.753015354816115E-03   7.902008065906348E-03
   8.052491426764155E-03   8.204397007559950E-03   8.357650009250265E-03
   8.512168923907968E-03   8.667865181567827E-03   8.824642783291651E-03
   8.982397920170828E-03   9.141018578002119E-03   9.300384127391155E-03
   9.460364899061846E-03   9.620821744176080E-03   9.781605579497529E-03
   9.942556917268402E-03   1.010350537970524E-02   1.026426919806364E-02
   1.042465469626969E-02   1.058445575916878E-02   1.074345328550293E-02
   1.090141462579201E-02   1.105809300536746E-02   1.121322693288656E-02
   1.136653959474152E-02   1.151773823587454E-02   1.166651352761265E-02
   1.181253892325048E-02   1.195547000223225E-02   1.209494380391782E-02
   1.223057815206284E-02   1.236197097129977E-02   1.248869959707537E-02
   1.261032008068298E-02   1.272636649122337E-02   1.283635021653878E-02
   1.293975926539025E-02   1.303605757338969E-02   1.312468431545647E-02
   1.320505322784315E-02   1.327655194306819E-02   1.333854134140519E-02
   1.339035492290861E-02   1.343129820430641E-02   1.346064814546032E-02
   1.347765261048567E-02   1.348152986903408E-02   1.347146814367603E-02
   1.344662520977374E-02   1.340612805471106E-02   1.334907260384291E-02
   1.327452352104487E-02   1.318151409228013E-02   1.306904620115873E-02
   1.293609040603855E-02   1.278158612881014E-02   1.260444196611480E-02
   1.240353613436660E-02   1.217771706057970E-02   1.192580413164367E-02
   1.164658861533153E-02   1.133883476697219E-02   1.100128113635777E-02
   1.063264209008924E-02   1.023160956517960E-02   9.796855070327893E-03
   9.327031951844178E-03   8.820777941729923E-03   8.276718005901091E-03
   7.693467510961588E-03   7.069635728285926E-03   6.403829694444077E-03
   5.694658447169619E-03   4.940737656139886E-03   4.140694667766665E-03
   3.293173982982400E-03   2.396843186631441E-03   1.450399346501274E-03
   4.525758992580987E-04  -5.978499604670671E-04  -1.702049372869264E-03
  -2.861133374222440E-03  -4.076143915068052E-03  -5.348044326032168E-03
  -6.677709224578955E-03  -8.065913859028958E-03  -9.513322889634891E-03
  -1.102047861046794E-02  -1.258778862032760E-02  -1.421551295591719E-02
  -1.590375070614024E-02  -1.765242613260020E-02  -1.946127432829253E-02
  -2.132982645404545E-02  -2.325739460057420E-02  -2.524305633305291E-02
  -2.728563898490329E-02  -2.938370377809316E-02  -3.153552985858624E-02
  -3.373909834774061E-02  -3.599207652337144E-02  -3.829180225784788E-02
  -4.063526885498665E-02  -4.301911044252132E-02  -4.543958809255731E-02
  -4.789257685853548E-02  -5.037355393371040E-02  -5.287758815289667E-02
  -5.539933107602071E-02  -5.793300990869153E-02  -6.047242253130465E-02
  -6.301093492383575E-02  -6.554148128819995E-02  -6.805656718341845E-02
  -7.054827600051490E-02  -7.300827911356143E-02  -7.542785005010723E-02
  -7.779788302784291E-02  -8.010891620409810E-02  -8.235115998005768E-02
  -8.451453069165030E-02  -8.658869000316263E-02  -8.856309029699173E-02
  -9.042702632266791E-02  -9.216969332954682E-02  -9.378025185944819E-02
  -9.524789931711844E-02  -9.656194836684559E-02  -9.771191212195240E-02
  -9.868759599947260E-02  -9.947919600431097E-02  -1.000774030849926E-01
  -1.004735130662659E-01  -1.006595415120284E-01  -1.006283427052918E-01
  -1.003737317504175E-01  -9.989060860725113E-02  -9.917508265808775E-02
  -9.822459618808306E-02  -9.703804492986624E-02  -9.561589358635594E-02
  -9.396028400553863E-02  -9.207513344136922E-02  -8.996622010104022E-02
  -8.764125295655316E-02  -8.510992259474146E-02  -8.238392970261814E-02
  -7.947698764312967E-02  -7.640479548025725E-02  -7.318497777302535E-02
  -6.983698748755911E-02  -6.638196848799066E-02  -6.284257427454698E-02
  -5.924273995509693E-02  -5.560740487943464E-02  -5.196218394838648E-02
  -4.833298634666557E-02  -4.474558135240841E-02  -4.122511195918784E-02
  -3.779555831710649E-02  -3.447915446438009E-02  -3.129576348142007E-02
  -2.826221805231330E-02  -2.539163545402175E-02  -2.269271819396478E-02
  -2.016905385550742E-02  -1.781843015147810E-02  -1.563218367978947E-02
  -1.359854740192168E-02  -1.171628625967691E-02  -9.986659610697668E-03
  -8.409998281785347E-03  -6.985662906940193E-03  -5.712000427333108E-03
  -4.586299087862344E-03  -3.604742461955246E-03  -2.762363264623924E-03
  -2.052997974782922E-03  -1.469243582595758E-03  -1.002418106636649E-03
  -6.425268889851954E-04  -3.782370733502183E-04  -1.968631002442489E-04
  -8.436651150034447E-05  -2.537383972672780E-05  -3.216860702204283E-06
   5.551115123125783E-17   0.000000000000000E+00   0.000000000000000E+00
   0.000000000000000E+00   0.000000000000000E+00   0.000000000000000E+00
   0.000000000000000E+00   0.000000000000000E+00   0.000000000000000E+00
   0.000000000000000E+00   0.000000000000000E+00   0.000000000000000E+00
   0.000000000000000E+00   0.000000000000000E+00   0.000000000000000E+00
   0.000000000000000E+00   0.000000000000000E+00   0.000000000000000E+00
   0.000000000000000E+00   0.000000000000000E+00   0.000000000000000E+00
   0.000000000000000E+00   0.000000000000000E+00   0.000000000000000E+00
   0.000000000000000E+00   0.000000000000000E+00   0.000000000000000E+00
   0.000000000000000E+00   0.000000000000000E+00   0.000000000000000E+00
   0.000000000000000E+00   0.000000000000000E+00   0.000000000000000E+00
   0.000000000000000E+00   0.000000000000000E+00   0.000000000000000E+00
   0.000000000000000E+00   0.000000000000000E+00   0.000000000000000E+00
   0.000000000000000E+00   0.000000000000000E+00   0.000000000000000E+00
   0.000000000000000E+00   0.000000000000000E+00   0.000000000000000E+00
   0.000000000000000E+00   0.000000000000000E+00   0.000000000000000E+00
   0.000000000000000E+00   0.000000000000000E+00   0.000000000000000E+00
   0.000000000000000E+00   0.000000000000000E+00   0.000000000000000E+00
   0.000000000000000E+00   0.000000000000000E+00   0.000000000000000E+00
   0.000000000000000E+00   0.000000000000000E+00   0.000000000000000E+00
   0.000000000000000E+00   0.000000000000000E+00   0.000000000000000E+00
   0.000000000000000E+00   0.000000000000000E+00   0.000000000000000E+00
   0.000000000000000E+00   0.000000000000000E+00   0.000000000000000E+00
   0.000000000000000E+00   0.000000000000000E+00   0.000000000000000E+00
   0.000000000000000E+00   0.000000000000000E+00   0.000000000000000E+00
   0.000000000000000E+00   0.000000000000000E+00   0.000000000000000E+00
   0.000000000000000E+00   0.000000000000000E+00   0.000000000000000E+00
   0.000000000000000E+00   0.000000000000000E+00   0.000000000000000E+00
   0.000000000000000E+00   0.000000000000000E+00   0.000000000000000E+00
   0.000000000000000E+00   0.000000000000000E+00   0.000000000000000E+00
   0.000000000000000E+00   0.000000000000000E+00   0.000000000000000E+00
   0.000000000000000E+00   0.000000000000000E+00   0.000000000000000E+00
   0.000000000000000E+00   0.000000000000000E+00   0.000000000000000E+00
   0.000000000000000E+00   0.000000000000000E+00   0.000000000000000E+00
   0.000000000000000E+00   0.000000000000000E+00   0.000000000000000E+00
   0.000000000000000E+00   0.000000000000000E+00   0.000000000000000E+00
   0.000000000000000E+00   0.000000000000000E+00   0.000000000000000E+00
   0.000000000000000E+00   0.000000000000000E+00   0.000000000000000E+00
   0.000000000000000E+00   0.000000000000000E+00   0.000000000000000E+00
   0.000000000000000E+00   0.000000000000000E+00   0.000000000000000E+00
   0.000000000000000E+00   0.000000000000000E+00   0.000000000000000E+00
   0.000000000000000E+00   0.000000000000000E+00   0.000000000000000E+00
   0.000000000000000E+00   0.000000000000000E+00   0.000000000000000E+00
   0.000000000000000E+00   0.000000000000000E+00   0.000000000000000E+00
   0.000000000000000E+00   0.000000000000000E+00   0.000000000000000E+00
   0.000000000000000E+00   0.000000000000000E+00   0.000000000000000E+00
   0.000000000000000E+00   0.000000000000000E+00   0.000000000000000E+00
   0.000000000000000E+00   0.000000000000000E+00   0.000000000000000E+00
   0.000000000000000E+00   0.000000000000000E+00   0.000000000000000E+00
   0.000000000000000E+00   0.000000000000000E+00   0.000000000000000E+00
   0.000000000000000E+00   0.000000000000000E+00   0.000000000000000E+00
   0.000000000000000E+00   0.000000000000000E+00   0.000000000000000E+00
   0.000000000000000E+00   0.000000000000000E+00   0.000000000000000E+00
   0.000000000000000E+00   0.000000000000000E+00   0.000000000000000E+00
   0.000000000000000E+00   0.000000000000000E+00   0.000000000000000E+00
   0.000000000000000E+00   0.000000000000000E+00   0.000000000000000E+00
   0.000000000000000E+00   0.000000000000000E+00   0.000000000000000E+00
   0.000000000000000E+00   0.000000000000000E+00   0.000000000000000E+00
   0.000000000000000E+00   0.000000000000000E+00   0.000000000000000E+00
   0.000000000000000E+00   0.000000000000000E+00   0.000000000000000E+00
   0.000000000000000E+00   0.000000000000000E+00   0.000000000000000E+00
   0.000000000000000E+00   0.000000000000000E+00   0.000000000000000E+00
   0.000000000000000E+00   0.000000000000000E+00   0.000000000000000E+00
   0.000000000000000E+00   0.000000000000000E+00   0.000000000000000E+00
   0.000000000000000E+00   0.000000000000000E+00   0.000000000000000E+00
   0.000000000000000E+00   0.000000000000000E+00   0.000000000000000E+00
   0.000000000000000E+00   0.000000000000000E+00   0.000000000000000E+00
   0.000000000000000E+00   0.000000000000000E+00   0.000000000000000E+00
   0.000000000000000E+00   0.000000000000000E+00   0.000000000000000E+00
   0.000000000000000E+00   0.000000000000000E+00   0.000000000000000E+00
   0.000000000000000E+00   0.000000000000000E+00   0.000000000000000E+00
   0.000000000000000E+00   0.000000000000000E+00   0.000000000000000E+00
   0.000000000000000E+00   0.000000000000000E+00   0.000000000000000E+00
   0.000000000000000E+00   0.000000000000000E+00   0.000000000000000E+00
   0.000000000000000E+00   0.000000000000000E+00   0.000000000000000E+00
   0.000000000000000E+00   0.000000000000000E+00   0.000000000000000E+00
   0.000000000000000E+00   0.000000000000000E+00   0.000000000000000E+00
   0.000000000000000E+00   0.000000000000000E+00   0.000000000000000E+00
   0.000000000000000E+00   0.000000000000000E+00   0.000000000000000E+00
   0.000000000000000E+00   0.000000000000000E+00   0.000000000000000E+00
   0.000000000000000E+00   0.000000000000000E+00   0.000000000000000E+00
   0.000000000000000E+00   0.000000000000000E+00   0.000000000000000E+00
   0.000000000000000E+00   0.000000000000000E+00   0.000000000000000E+00
   0.000000000000000E+00   0.000000000000000E+00   0.000000000000000E+00
   0.000000000000000E+00   0.000000000000000E+00   0.000000000000000E+00
   0.000000000000000E+00   0.000000000000000E+00   0.000000000000000E+00
   0.000000000000000E+00   0.000000000000000E+00   0.000000000000000E+00
   0.000000000000000E+00   0.000000000000000E+00   0.000000000000000E+00
   0.000000000000000E+00   0.000000000000000E+00   0.000000000000000E+00
   0.000000000000000E+00   0.000000000000000E+00   0.000000000000000E+00
   0.000000000000000E+00   0.000000000000000E+00   0.000000000000000E+00
   0.000000000000000E+00   0.000000000000000E+00   0.000000000000000E+00
   0.000000000000000E+00   0.000000000000000E+00   0.000000000000000E+00
   0.000000000000000E+00   0.000000000000000E+00   0.000000000000000E+00
   0.000000000000000E+00   0.000000000000000E+00   0.000000000000000E+00
   0.000000000000000E+00   0.000000000000000E+00   0.000000000000000E+00
   0.000000000000000E+00   0.000000000000000E+00   0.000000000000000E+00
   0.000000000000000E+00   0.000000000000000E+00   0.000000000000000E+00
   0.000000000000000E+00   0.000000000000000E+00   0.000000000000000E+00
   0.000000000000000E+00   0.000000000000000E+00   0.000000000000000E+00
   0.000000000000000E+00   0.000000000000000E+00   0.000000000000000E+00
   0.000000000000000E+00   0.000000000000000E+00   0.000000000000000E+00
   0.000000000000000E+00   0.000000000000000E+00   0.000000000000000E+00
   0.000000000000000E+00   0.000000000000000E+00   0.000000000000000E+00
   0.000000000000000E+00   0.000000000000000E+00   0.000000000000000E+00
   0.000000000000000E+00   0.000000000000000E+00
      </PP_QIJL.3.4.0>
      <PP_QIJL.3.4.2 first_index="3" second_index="4" composite_index="9" angular_momentum="2" size="1211">
  -3.928036097499518E-19  -4.129430814698544E-19  -4.341151259843017E-19
  -4.563726844324811E-19  -4.797714123038280E-19  -5.043698186057301E-19
  -5.302294121665259E-19  -5.574148554396134E-19  -5.859941261932581E-19
  -6.160386874904341E-19  -6.476236663836884E-19  -6.808280417719108E-19
  -7.157348418887176E-19  -7.524313519162782E-19  -7.910093322437466E-19
  -8.315652479160086E-19  -8.742005098465523E-19  -9.190217283975713E-19
  -9.661409799613904E-19  -1.015676087209841E-18  -1.067750913712286E-18
  -1.122495673659076E-18  -1.180047257464838E-18  -1.240549574065816E-18
  -1.304153910767175E-18  -1.371019311540044E-18  -1.441312974714302E-18
  -1.515210671061475E-18  -1.592897183313216E-18  -1.674566768214398E-18
  -1.760423642266129E-18  -1.850682492373384E-18  -1.945569012674085E-18
  -2.045320468891998E-18  -2.150186291624635E-18  -2.260428700049641E-18
  -2.376323357609322E-18  -2.498160061312841E-18  -2.626243466379656E-18
  -2.760893848036295E-18  -2.902447902371175E-18  -3.051259588250222E-18
  -3.207701012398395E-18  -3.372163359860290E-18  -3.545057872166539E-18
  -3.726816875651760E-18  -3.917894862495616E-18  -4.118769627189972E-18
  -4.329943461273954E-18  -4.551944409324481E-18  -4.785327589342615E-18
  -5.030676580837791E-18  -5.288604884080489E-18  -5.559757454172429E-18
  -5.844812313770321E-18  -6.144482248495532E-18  -6.459516589269434E-18
  -6.790703086030984E-18  -7.138869877521808E-18  -7.504887562064484E-18
  -7.889671374511623E-18  -8.294183474809781E-18  -8.719435353900389E-18
  -9.166490362973920E-18  -9.636466372401762E-18  -1.013053856699420E-17
  -1.064994238457460E-17  -1.119597660521736E-17  -1.177000659887451E-17
  -1.237346773951181E-17  -1.300786899429103E-17  -1.367479669677386E-17
  -1.437591851358191E-17  -1.511298761443183E-17  -1.588784705597280E-17
  -1.670243439038772E-17  -1.755878651028292E-17  -1.845904474198049E-17
  -1.940546019994917E-17  -2.040039941576313E-17  -2.144635025566299E-17
  -2.254592814151739E-17  -2.370188259073958E-17  -2.491710409151284E-17
  -2.619463133051649E-17  -2.753765879122469E-17  -2.894954474177897E-17
  -3.043381963240749E-17  -3.199419492338892E-17  -3.363457236563651E-17
  -3.535905375710656E-17  -3.717195119942980E-17  -3.907779788041092E-17
  -4.108135940935864E-17  -4.318764573359127E-17  -4.540192366591309E-17
  -4.772973005438951E-17  -5.017688562735050E-17  -5.274950954824219E-17
  -5.545403471672286E-17  -5.829722385426058E-17  -6.128618641445943E-17
  -6.442839636039513E-17  -6.773171085341447E-17  -7.120438990013112E-17
  -7.485511700674158E-17  -7.869302089231354E-17  -8.272769831533618E-17
  -8.696923807061371E-17  -9.142824621650638E-17  -9.611587259559733E-17
  -1.010438387151055E-16  -1.062244670567571E-16  -1.116707118894048E-16
  -1.173961916614473E-16  -1.234152230540377E-16  -1.297428567802430E-16
  -1.363949152196619E-16  -1.433880319826119E-16  -1.507396935028163E-16
  -1.584682827625911E-16  -1.665931252598725E-16  -1.751345373320224E-16
  -1.841138769572496E-16  -1.935535971606759E-16  -2.034773021585848E-16
  -2.139098063812532E-16  -2.248771965219444E-16  -2.364068967672214E-16
  -2.485277373716924E-16  -2.612700267486514E-16  -2.746656272568912E-16
  -2.887480348731865E-16  -3.035524629496709E-16  -3.191159302655512E-16
  -3.354773535933193E-16  -3.526776450109434E-16  -3.707598142033587E-16
  -3.897690760090636E-16  -4.097529634807568E-16  -4.307614467427003E-16
  -4.528470579420443E-16  -4.760650226065348E-16  -5.004733977370740E-16
  -5.261332169804428E-16  -5.531086432451754E-16  -5.814671291422250E-16
  -6.112795856515964E-16  -6.426205594366928E-16  -6.755684192497776E-16
  -7.102055518946240E-16  -7.466185682364017E-16  -7.848985197739069E-16
  -8.251411263156859E-16  -8.674470153293690E-16  -9.119219735626815E-16
  -9.586772115653656E-16  -1.007829641773413E-15  -1.059502170850973E-15
  -1.113824007020971E-15  -1.170930983152865E-15  -1.230965896415495E-15
  -1.294078865344280E-15  -1.360427705215646E-15  -1.430178322667333E-15
  -1.503505130551220E-15  -1.580591484056258E-15  -1.661630139191736E-15
  -1.746823734777584E-15  -1.836385299146830E-15  -1.930538782827153E-15
  -2.029519618533749E-15  -2.133575309873471E-15  -2.242966050232581E-15
  -2.357965373395526E-15  -2.478860837521538E-15  -2.605954744189654E-15
  -2.739564894309734E-15  -2.880025382789978E-15  -3.027687433947922E-15
  -3.182920279753688E-15  -3.346112083101976E-15  -3.517670908420926E-15
  -3.698025742045347E-15  -3.887627564905506E-15  -4.086950480213702E-15
  -4.296492898968853E-15  -4.516778786242798E-15  -4.748358971365291E-15
  -4.991812525283572E-15  -5.247748208540372E-15  -5.516805993491779E-15
  -5.799658664570322E-15  -6.097013500595596E-15  -6.409614043338740E-15
  -6.738241956762764E-15  -7.083718981588677E-15  -7.446908990073726E-15
  -7.828720146140670E-15  -8.230107176259193E-15  -8.652073756757369E-15
  -9.095675023533915E-15  -9.562020210445214E-15  -1.005227542296581E-14
  -1.056766655405734E-14  -1.110948234953665E-14  -1.167907763060952E-14
  -1.227787668162614E-14  -1.290737681153094E-14  -1.356915209791179E-14
  -1.426485732300981E-14  -1.499623211153375E-14  -1.576510528062328E-14
  -1.657339941284012E-14  -1.742313566362141E-14  -1.831643881521524E-14
  -1.925554258973828E-14  -2.024279523463798E-14  -2.128066539452806E-14
  -2.237174828407925E-14  -2.351877217739955E-14  -2.472460523013340E-14
  -2.599226265133539E-14  -2.732491424305416E-14  -2.872589232647906E-14
  -3.019870007446677E-14  -3.174702027128782E-14  -3.337472452149181E-14
  -3.508588293092206E-14  -3.688477428408610E-14  -3.877589674332843E-14
  -4.076397909656406E-14  -4.285399258169144E-14  -4.505116331725734E-14
  -4.736098537045470E-14  -4.978923449512733E-14  -5.234198257414037E-14
  -5.502561280222184E-14  -5.784683564724554E-14  -6.081270562986624E-14
  -6.393063896345963E-14  -6.720843209848564E-14  -7.065428121763415E-14
  -7.427680273050969E-14  -7.808505481909883E-14  -8.208856008789319E-14
  -8.629732937530941E-14  -9.072188678594180E-14  -9.537329600624475E-14
  -1.002631879694461E-13  -1.054037899388667E-13  -1.108079560823720E-13
  -1.164891996144029E-13  -1.224617265859632E-13  -1.287404714070501E-13
  -1.353411341903540E-13  -1.422802200096084E-13  -1.495750801707488E-13
  -1.572439555990872E-13  -1.653060224509880E-13  -1.737814400640943E-13
  -1.826914013660126E-13  -1.920581858674945E-13  -2.019052153726301E-13
  -2.122571125453561E-13  -2.231397624787202E-13  -2.345803774208622E-13
  -2.466075648195530E-13  -2.592513988554411E-13  -2.725434956428746E-13
  -2.865170922863334E-13  -3.012071299901646E-13  -3.166503414294176E-13
  -3.328853426002691E-13  -3.499527293796976E-13  -3.678951790358554E-13
  -3.867575569429729E-13  -4.065870287676203E-13  -4.274331784068626E-13
  -4.493481319732064E-13  -4.723866881363525E-13  -4.966064551476919E-13
  -5.220679948901531E-13  -5.488349743136109E-13  -5.769743246345168E-13
  -6.065564086978138E-13  -6.376551969196515E-13  -6.703484522508063E-13
  -7.047179246233368E-13  -7.408495553666766E-13  -7.788336921042851E-13
  -8.187653146682347E-13  -8.607442725966001E-13  -9.048755348075227E-13
  -9.512694520742644E-13  -1.000042032957527E-12  -1.051315233885057E-12
  -1.105217264103808E-12  -1.161882906267247E-12  -1.221453853459395E-12
  -1.284079063498299E-12  -1.349915131404931E-12  -1.419126680968773E-12
  -1.491886776389263E-12  -1.568377355022368E-12  -1.648789682314316E-12
  -1.733324830060127E-12  -1.822194179182697E-12  -1.915619948289715E-12
  -2.013835749329993E-12  -2.117087171738608E-12  -2.225632396531536E-12
  -2.339742841885214E-12  -2.459703841815341E-12  -2.585815359651934E-12
  -2.718392738094541E-12  -2.857767487723243E-12  -3.004288115936940E-12
  -3.158320998391710E-12  -3.320251295118250E-12  -3.490483913608988E-12
  -3.669444521283144E-12  -3.857580609861228E-12  -4.055362614310487E-12
  -4.263285089159047E-12  -4.481867945120178E-12  -4.711657749118560E-12
  -4.953229090969424E-12  -5.207186020127704E-12  -5.474163556099659E-12
  -5.754829276293809E-12  -6.049884985281141E-12  -6.360068469638854E-12
  -6.686155342765147E-12  -7.028960984277969E-12  -7.389342578847173E-12
  -7.768201259557477E-12  -8.166484361162262E-12  -8.585187788861509E-12
  -9.025358508527241E-12  -9.488097164602960E-12  -9.974560832222342E-12
  -1.048596591042943E-11  -1.102359116373369E-11  -1.158878091960538E-11
  -1.218294842990630E-11  -1.280757940466007E-11  -1.346423572699855E-11
  -1.415455935857260E-11  -1.488027644519211E-11  -1.564320163296130E-11
  -1.644524260570030E-11  -1.728840485499927E-11  -1.817479669483091E-11
  -1.910663453325999E-11  -2.008624841443122E-11  -2.111608784469129E-11
  -2.219872791741351E-11  -2.333687575183840E-11  -2.453337726202915E-11
  -2.579122427286750E-11  -2.711356200088031E-11  -2.850369691860348E-11
  -2.996510502214452E-11  -3.150144052261607E-11  -3.311654498317145E-11
  -3.481445692448611E-11  -3.659942192270333E-11  -3.847590322508994E-11
  -4.044859290994481E-11  -4.252242361866290E-11  -4.470258088928625E-11
  -4.699451612238150E-11  -4.940396021165893E-11  -5.193693787341413E-11
  -5.459978271061947E-11  -5.739915304932576E-11  -6.034204858697246E-11
  -6.343582789422746E-11  -6.668822681411465E-11  -7.010737780443256E-11
  -7.370183027181873E-11  -7.748057194830321E-11  -8.145305136379305E-11
  -8.562920147067177E-11  -9.001946447957965E-11  -9.463481796846803E-11
  -9.948680233019814E-11  -1.045875496273140E-10  -1.099498139261218E-10
  -1.155870031859172E-10  -1.215132127830858E-10  -1.277432607538838E-10
  -1.342927248440157E-10  -1.411779814576268E-10  -1.484162466030864E-10
  -1.560256189379291E-10  -1.640251250205586E-10  -1.724347668818510E-10
  -1.812755720355798E-10  -1.905696460526865E-10  -2.003402278308330E-10
  -2.106117476973968E-10  -2.214098884911719E-10  -2.327616497754641E-10
  -2.446954153431107E-10  -2.572410241821773E-10  -2.704298450797254E-10
  -2.842948550501650E-10  -2.988707217842310E-10  -3.141938903246948E-10
  -3.303026741854876E-10  -3.472373511419936E-10  -3.650402639319790E-10
  -3.837559261188733E-10  -4.034311333820274E-10  -4.241150805121455E-10
  -4.458594844043180E-10  -4.687187133561194E-10  -4.927499229939444E-10
  -5.180131991673499E-10  -5.445717081685775E-10  -5.724918546527204E-10
  -6.018434476532759E-10  -6.326998751080304E-10  -6.651382873314820E-10
  -6.992397898924120E-10  -7.350896463786280E-10  -7.727774915557234E-10
  -8.123975554525697E-10  -8.540488989336151E-10  -8.978356613467568E-10
  -9.438673208656991E-10  -9.922589681774781E-10  -1.043131594199133E-09
  -1.096612392542567E-09  -1.152835077483523E-09  -1.211940218229243E-09
  -1.274075590320234E-09  -1.339396545044251E-09  -1.408066397783183E-09
  -1.480256836278496E-09  -1.556148349761032E-09  -1.635930680334650E-09
  -1.719803296884012E-09  -1.807975894062114E-09  -1.900668916295357E-09
  -1.998114108911344E-09  -2.100555097358482E-09  -2.208247996043420E-09
  -2.321462049034543E-09  -2.440480302386611E-09  -2.565600311710348E-09
  -2.697134886850904E-09  -2.835412872495658E-09  -2.980779970794877E-09
  -3.133599605585115E-09  -3.294253830249694E-09  -3.463144282816328E-09
  -3.640693190162920E-09  -3.827344422446531E-09  -4.023564603915014E-09
  -4.229844277389353E-09  -4.446699131524205E-09  -4.674671289487849E-09
  -4.914330667089244E-09  -5.166276374561225E-09  -5.431138272320437E-09
  -5.709578461121264E-09  -6.002293008123212E-09  -6.310013658695774E-09
  -6.633509651675985E-09  -6.973589663425537E-09  -7.331103827733905E-09
  -7.706945843912673E-09  -8.102055214350215E-09  -8.517419625102505E-09
  -8.954077355771821E-09  -9.413119901974639E-09  -9.895694739273660E-09
  -1.040300811202262E-08  -1.093632812804494E-08  -1.149698788201657E-08
  -1.208638876964283E-08  -1.270600402777566E-08  -1.335738240886178E-08
  -1.404215204797911E-08  -1.476202450403168E-08  -1.551879905907962E-08
  -1.631436721317628E-08  -1.715071741442097E-08  -1.802994000657878E-08
  -1.895423246186418E-08  -1.992590488770915E-08  -2.094738574718338E-08
  -2.202122798409823E-08  -2.315011536161261E-08  -2.433686916793024E-08
  -2.558445528744036E-08  -2.689599156881419E-08  -2.827475565695586E-08
  -2.972419312727834E-08  -3.124792613155104E-08  -3.284976244941976E-08
  -3.453370491251686E-08  -3.630396153041303E-08  -3.816495589008937E-08
  -4.012133825474568E-08  -4.217799712268174E-08  -4.434007154777711E-08
  -4.661296378948097E-08  -4.900235298575841E-08  -5.151420916115268E-08
  -5.415480829343760E-08  -5.693074779995618E-08  -5.984896317961140E-08
  -6.291674520037124E-08  -6.614175813773908E-08  -6.953205894203238E-08
  -7.309611719936823E-08  -7.684283651355125E-08  -8.078157644134566E-08
  -8.492217604847988E-08  -8.927497837588115E-08  -9.385085626451327E-08
  -9.866123943098252E-08  -1.037181430615111E-07  -1.090341977320542E-07
  -1.146226808877338E-07  -1.204975499841239E-07  -1.266734773487941E-07
  -1.331658866453435E-07  -1.399909914292574E-07  -1.471658355626680E-07
  -1.547083356719369E-07  -1.626373258089025E-07  -1.709726044595508E-07
  -1.797349838365868E-07  -1.889463417518606E-07  -1.986296761702702E-07
  -2.088091624787625E-07  -2.195102137656645E-07  -2.307595441207055E-07
  -2.425852351212064E-07  -2.550168059753928E-07  -2.680852867774934E-07
  -2.818232960198927E-07  -2.962651216588135E-07  -3.114468066051303E-07
  -3.274062384145598E-07  -3.441832435848058E-07  -3.618196867523956E-07
  -3.803595748206658E-07  -3.998491665242186E-07  -4.203370875129396E-07
  -4.418744513488918E-07  -4.645149865828666E-07  -4.883151705745952E-07
  -5.133343697032441E-07  -5.396349872261831E-07  -5.672826182958493E-07
  -5.963462130477709E-07  -6.268982480218495E-07  -6.590149062126803E-07
  -6.927762664670678E-07  -7.282665023478686E-07  -7.655740912085294E-07
  -8.047920340818161E-07  -8.460180863944376E-07  -8.893550008472145E-07
  -9.349107824084357E-07  -9.827989563606507E-07  -1.033138849964241E-06
  -1.086055888543422E-06  -1.141681906563887E-06  -1.200155474561070E-06
  -1.261622242655919E-06  -1.326235301676419E-06  -1.394155562453921E-06
  -1.465552154609696E-06  -1.540602845340400E-06  -1.619494479864568E-06
  -1.702423443778175E-06  -1.789596149440659E-06  -1.881229546498912E-06
  -1.977551658746758E-06  -2.078802148092918E-06  -2.185232907065237E-06
  -2.297108681492106E-06  -2.414707724817405E-06  -2.538322485242851E-06
  -2.668260328257301E-06  -2.804844295277171E-06  -2.948413901045813E-06
  -3.099325971105845E-06  -3.257955522123228E-06  -3.424696686200576E-06
  -3.599963682519215E-06  -3.784191837631949E-06  -3.977838657660270E-06
  -4.181384954658969E-06  -4.395336029610133E-06  -4.620222915522265E-06
  -4.856603683069535E-06  -5.105064812097534E-06  -5.366222632475666E-06
  -5.640724837438335E-06  -5.929252073224482E-06  -6.232519608919730E-06
  -6.551279090164581E-06  -6.886320381287655E-06  -7.238473500100978E-06
  -7.608610649759952E-06  -7.997648353170632E-06  -8.406549694040520E-06
  -8.836326670929093E-06  -9.288042669000958E-06  -9.762815056127439E-06
  -1.026181790869249E-05  -1.078628487417405E-05  -1.133751217691267E-05
  -1.191686177425718E-05  -1.252576467048064E-05  -1.316572439617914E-05
  -1.383832066158585E-05  -1.454521319177509E-05  -1.528814575335015E-05
  -1.606895038172540E-05  -1.688955181843209E-05  -1.775197216972831E-05
  -1.865833579616575E-05  -1.961087444525325E-05  -2.061193263865651E-05
  -2.166397332651621E-05  -2.276958382164474E-05  -2.393148202758085E-05
  -2.515252297414374E-05  -2.643570567612785E-05  -2.778418033004846E-05
  -2.920125586574899E-05  -3.069040786962089E-05  -3.225528689766420E-05
  -3.389972719650732E-05  -3.562775585280236E-05  -3.744360239053844E-05
  -3.935170883840361E-05  -4.135674028906153E-05  -4.346359597401188E-05
  -4.567742087825864E-05  -4.800361792082862E-05  -5.044786072686424E-05
  -5.301610702039849E-05  -5.571461266576209E-05  -5.854994638896912E-05
  -6.152900521026142E-05  -6.465903062109858E-05  -6.794762554034601E-05
  -7.140277208558169E-05  -7.503285019720265E-05  -7.884665715464008E-05
  -8.285342802568896E-05  -8.706285709127943E-05  -9.148512029084633E-05
  -9.613089873382899E-05  -1.010114033262586E-04  -1.061384005620995E-04
  -1.115242395322084E-04  -1.171818802047940E-04  -1.231249230344189E-04
  -1.293676399582103E-04  -1.359250068403246E-04  -1.428127374287189E-04
  -1.500473188897095E-04  -1.576460489892162E-04  -1.656270749917802E-04
  -1.740094343511358E-04  -1.828130972687902E-04  -1.920590112000069E-04
  -2.017691473893508E-04  -2.119665495206133E-04  -2.226753845693040E-04
  -2.339209959486042E-04  -2.457299590426484E-04  -2.581301392242835E-04
  -2.711507524574973E-04  -2.848224285875471E-04  -2.991772774255720E-04
  -3.142489577367920E-04  -3.300727492452675E-04  -3.466856277708207E-04
  -3.641263436170443E-04  -3.824355033324165E-04  -4.016556549689873E-04
  -4.218313769668042E-04  -4.430093707944689E-04  -4.652385574788552E-04
  -4.885701781599734E-04  -5.130578988087908E-04  -5.387579192485088E-04
  -5.657290866207939E-04  -5.940330134415906E-04  -6.237342003904616E-04
  -6.549001639804309E-04  -6.876015692542861E-04  -7.219123676540924E-04
  -7.579099402105594E-04  -7.956752461971688E-04  -8.352929773930863E-04
  -8.768517180965558E-04  -9.204441110268743E-04  -9.661670292501470E-04
  -1.014121754258185E-03  -1.064414160325103E-03  -1.117154905258355E-03
  -1.172459627653691E-03  -1.230449150752892E-03  -1.291249692993593E-03
  -1.354993085326552E-03  -1.421816995362583E-03  -1.491865158394393E-03
  -1.565287615320710E-03  -1.642240957479957E-03  -1.722888578376922E-03
  -1.807400932261920E-03  -1.895955799492136E-03  -1.988738558574875E-03
  -2.085942464757367E-03  -2.187768934989785E-03  -2.294427839046822E-03
  -2.406137796546880E-03  -2.523126479558432E-03  -2.645630920427969E-03
  -2.773897824404706E-03  -2.908183886572401E-03  -3.048756112527476E-03
  -3.195892142167423E-03  -3.349880575869498E-03  -3.511021302250719E-03
  -3.679625826603798E-03  -3.856017598998447E-03  -4.040532340926137E-03
  -4.233518369245265E-03  -4.435336916053819E-03  -4.646362442978316E-03
  -4.866982948217933E-03  -5.097600264524316E-03  -5.338630346127868E-03
  -5.590503542438491E-03  -5.853664856158242E-03  -6.128574183235773E-03
  -6.415706531876135E-03  -6.715552217588988E-03  -7.028617031012169E-03
  -7.355422374992236E-03  -7.696505367129159E-03  -8.052418903707457E-03
  -8.423731680635278E-03  -8.811028166695770E-03  -9.214908524088225E-03
  -9.635988470888505E-03  -1.007489907970190E-02  -1.053228650640898E-02
  -1.100881164251665E-02  -1.150514968423176E-02  -1.202198961096086E-02
  -1.256003356552103E-02  -1.311999612791736E-02  -1.370260347410259E-02
  -1.430859241069677E-02  -1.493870927619445E-02  -1.559370869874711E-02
  -1.627435220016223E-02  -1.698140663532915E-02  -1.771564245585871E-02
  -1.847783178631436E-02  -1.926874630103353E-02  -2.008915488917646E-02
  -2.093982109532377E-02  -2.182150032266661E-02  -2.273493678560541E-02
  -2.368086019841702E-02  -2.465998218655381E-02  -2.567299240713780E-02
  -2.672055436530608E-02  -2.780330091326351E-02  -2.892182941923912E-02
  -3.007669659401155E-02  -3.126841296331277E-02  -3.249743697524192E-02
  -3.376416873283937E-02  -3.506894334323180E-02  -3.641202387624928E-02
  -3.779359392719826E-02  -3.921374978055098E-02  -4.067249217371460E-02
  -4.216971766281992E-02  -4.370520959561728E-02  -4.527862870015109E-02
  -4.688950330191730E-02  -4.853721918671489E-02  -5.022100913144935E-02
  -5.193994213071370E-02  -5.369291235314280E-02  -5.547862786830317E-02
  -5.729559919227568E-02  -5.914212770816049E-02  -6.101629402645402E-02
  -6.291594635968106E-02  -6.483868899578307E-02  -6.678187096556783E-02
  -6.874257501103603E-02  -7.071760697353813E-02  -7.270348573350581E-02
  -7.469643384684806E-02  -7.669236903694421E-02  -7.868689671544106E-02
  -8.067530371960049E-02  -8.265255346866594E-02  -8.461328275640985E-02
  -8.655180041149323E-02  -8.846208807130465E-02  -9.033780332821469E-02
  -9.217228551942404E-02  -9.395856444238616E-02  -9.568937228674487E-02
  -9.735715908039885E-02  -9.895411195111666E-02  -1.004721785055526E-01
  -1.019030946238821E-01  -1.032384169598952E-01  -1.044695604225395E-01
  -1.055878408947337E-01  -1.065845234179799E-01  -1.074508760359600E-01
  -1.081782294459860E-01  -1.087580425529572E-01  -1.091819739553760E-01
  -1.094419593160826E-01  -1.095302944807589E-01  -1.094397241041146E-01
  -1.091635354262563E-01  -1.086956567094740E-01  -1.080307596981557E-01
  -1.071643653015869E-01  -1.060929515211630E-01  -1.048140624505168E-01
  -1.033264169702027E-01  -1.016300155393155E-01  -9.972624325681645E-02
  -9.761796712815606E-02  -9.530962523148929E-02  -9.280730523684484E-02
  -9.011880949632375E-02  -8.725370370021450E-02  -8.422334589035817E-02
  -8.104089244685676E-02  -7.772127752732166E-02  -7.428116235043514E-02
  -7.073885069013362E-02  -6.711416699682628E-02  -6.342829370234807E-02
  -5.970356451145438E-02  -5.596321085068025E-02  -5.223105915185555E-02
  -4.853117730883315E-02  -4.488746947766989E-02  -4.132321940703856E-02
  -3.786058369919965E-02  -3.452003782169478E-02  -3.131977932121758E-02
  -2.827509453373462E-02  -2.539769713238955E-02  -2.269504909244787E-02
  -2.016967705674628E-02  -1.781849962109539E-02  -1.563218367978947E-02
  -1.359854740192168E-02  -1.171628625967691E-02  -9.986659610697668E-03
  -8.409998281785347E-03  -6.985662906940193E-03  -5.712000427333108E-03
  -4.586299087862344E-03  -3.604742461955246E-03  -2.762363264623924E-03
  -2.052997974782922E-03  -1.469243582595758E-03  -1.002418106636649E-03
  -6.425268889851954E-04  -3.782370733502183E-04  -1.968631002442489E-04
  -8.436651150034447E-05  -2.537383972672780E-05  -3.216860702204283E-06
   5.551115123125783E-17   0.000000000000000E+00   0.000000000000000E+00
   0.000000000000000E+00   0.000000000000000E+00   0.000000000000000E+00
   0.000000000000000E+00   0.000000000000000E+00   0.000000000000000E+00
   0.000000000000000E+00   0.000000000000000E+00   0.000000000000000E+00
   0.000000000000000E+00   0.000000000000000E+00   0.000000000000000E+00
   0.000000000000000E+00   0.000000000000000E+00   0.000000000000000E+00
   0.000000000000000E+00   0.000000000000000E+00   0.000000000000000E+00
   0.000000000000000E+00   0.000000000000000E+00   0.000000000000000E+00
   0.000000000000000E+00   0.000000000000000E+00   0.000000000000000E+00
   0.000000000000000E+00   0.000000000000000E+00   0.000000000000000E+00
   0.000000000000000E+00   0.000000000000000E+00   0.000000000000000E+00
   0.000000000000000E+00   0.000000000000000E+00   0.000000000000000E+00
   0.000000000000000E+00   0.000000000000000E+00   0.000000000000000E+00
   0.000000000000000E+00   0.000000000000000E+00   0.000000000000000E+00
   0.000000000000000E+00   0.000000000000000E+00   0.000000000000000E+00
   0.000000000000000E+00   0.000000000000000E+00   0.000000000000000E+00
   0.000000000000000E+00   0.000000000000000E+00   0.000000000000000E+00
   0.000000000000000E+00   0.000000000000000E+00   0.000000000000000E+00
   0.000000000000000E+00   0.000000000000000E+00   0.000000000000000E+00
   0.000000000000000E+00   0.000000000000000E+00   0.000000000000000E+00
   0.000000000000000E+00   0.000000000000000E+00   0.000000000000000E+00
   0.000000000000000E+00   0.000000000000000E+00   0.000000000000000E+00
   0.000000000000000E+00   0.000000000000000E+00   0.000000000000000E+00
   0.000000000000000E+00   0.000000000000000E+00   0.000000000000000E+00
   0.000000000000000E+00   0.000000000000000E+00   0.000000000000000E+00
   0.000000000000000E+00   0.000000000000000E+00   0.000000000000000E+00
   0.000000000000000E+00   0.000000000000000E+00   0.000000000000000E+00
   0.000000000000000E+00   0.000000000000000E+00   0.000000000000000E+00
   0.000000000000000E+00   0.000000000000000E+00   0.000000000000000E+00
   0.000000000000000E+00   0.000000000000000E+00   0.000000000000000E+00
   0.000000000000000E+00   0.000000000000000E+00   0.000000000000000E+00
   0.000000000000000E+00   0.000000000000000E+00   0.000000000000000E+00
   0.000000000000000E+00   0.000000000000000E+00   0.000000000000000E+00
   0.000000000000000E+00   0.000000000000000E+00   0.000000000000000E+00
   0.000000000000000E+00   0.000000000000000E+00   0.000000000000000E+00
   0.000000000000000E+00   0.000000000000000E+00   0.000000000000000E+00
   0.000000000000000E+00   0.000000000000000E+00   0.000000000000000E+00
   0.000000000000000E+00   0.000000000000000E+00   0.000000000000000E+00
   0.000000000000000E+00   0.000000000000000E+00   0.000000000000000E+00
   0.000000000000000E+00   0.000000000000000E+00   0.000000000000000E+00
   0.000000000000000E+00   0.000000000000000E+00   0.000000000000000E+00
   0.000000000000000E+00   0.000000000000000E+00   0.000000000000000E+00
   0.000000000000000E+00   0.000000000000000E+00   0.000000000000000E+00
   0.000000000000000E+00   0.000000000000000E+00   0.000000000000000E+00
   0.000000000000000E+00   0.000000000000000E+00   0.000000000000000E+00
   0.000000000000000E+00   0.000000000000000E+00   0.000000000000000E+00
   0.000000000000000E+00   0.000000000000000E+00   0.000000000000000E+00
   0.000000000000000E+00   0.000000000000000E+00   0.000000000000000E+00
   0.000000000000000E+00   0.000000000000000E+00   0.000000000000000E+00
   0.000000000000000E+00   0.000000000000000E+00   0.000000000000000E+00
   0.000000000000000E+00   0.000000000000000E+00   0.000000000000000E+00
   0.000000000000000E+00   0.000000000000000E+00   0.000000000000000E+00
   0.000000000000000E+00   0.000000000000000E+00   0.000000000000000E+00
   0.000000000000000E+00   0.000000000000000E+00   0.000000000000000E+00
   0.000000000000000E+00   0.000000000000000E+00   0.000000000000000E+00
   0.000000000000000E+00   0.000000000000000E+00   0.000000000000000E+00
   0.000000000000000E+00   0.000000000000000E+00   0.000000000000000E+00
   0.000000000000000E+00   0.000000000000000E+00   0.000000000000000E+00
   0.000000000000000E+00   0.000000000000000E+00   0.000000000000000E+00
   0.000000000000000E+00   0.000000000000000E+00   0.000000000000000E+00
   0.000000000000000E+00   0.000000000000000E+00   0.000000000000000E+00
   0.000000000000000E+00   0.000000000000000E+00   0.000000000000000E+00
   0.000000000000000E+00   0.000000000000000E+00   0.000000000000000E+00
   0.000000000000000E+00   0.000000000000000E+00   0.000000000000000E+00
   0.000000000000000E+00   0.000000000000000E+00   0.000000000000000E+00
   0.000000000000000E+00   0.000000000000000E+00   0.000000000000000E+00
   0.000000000000000E+00   0.000000000000000E+00   0.000000000000000E+00
   0.000000000000000E+00   0.000000000000000E+00   0.000000000000000E+00
   0.000000000000000E+00   0.000000000000000E+00   0.000000000000000E+00
   0.000000000000000E+00   0.000000000000000E+00   0.000000000000000E+00
   0.000000000000000E+00   0.000000000000000E+00   0.000000000000000E+00
   0.000000000000000E+00   0.000000000000000E+00   0.000000000000000E+00
   0.000000000000000E+00   0.000000000000000E+00   0.000000000000000E+00
   0.000000000000000E+00   0.000000000000000E+00   0.000000000000000E+00
   0.000000000000000E+00   0.000000000000000E+00   0.000000000000000E+00
   0.000000000000000E+00   0.000000000000000E+00   0.000000000000000E+00
   0.000000000000000E+00   0.000000000000000E+00   0.000000000000000E+00
   0.000000000000000E+00   0.000000000000000E+00   0.000000000000000E+00
   0.000000000000000E+00   0.000000000000000E+00   0.000000000000000E+00
   0.000000000000000E+00   0.000000000000000E+00   0.000000000000000E+00
   0.000000000000000E+00   0.000000000000000E+00   0.000000000000000E+00
   0.000000000000000E+00   0.000000000000000E+00   0.000000000000000E+00
   0.000000000000000E+00   0.000000000000000E+00   0.000000000000000E+00
   0.000000000000000E+00   0.000000000000000E+00   0.000000000000000E+00
   0.000000000000000E+00   0.000000000000000E+00   0.000000000000000E+00
   0.000000000000000E+00   0.000000000000000E+00   0.000000000000000E+00
   0.000000000000000E+00   0.000000000000000E+00   0.000000000000000E+00
   0.000000000000000E+00   0.000000000000000E+00   0.000000000000000E+00
   0.000000000000000E+00   0.000000000000000E+00   0.000000000000000E+00
   0.000000000000000E+00   0.000000000000000E+00   0.000000000000000E+00
   0.000000000000000E+00   0.000000000000000E+00   0.000000000000000E+00
   0.000000000000000E+00   0.000000000000000E+00   0.000000000000000E+00
   0.000000000000000E+00   0.000000000000000E+00   0.000000000000000E+00
   0.000000000000000E+00   0.000000000000000E+00   0.000000000000000E+00
   0.000000000000000E+00   0.000000000000000E+00   0.000000000000000E+00
   0.000000000000000E+00   0.000000000000000E+00   0.000000000000000E+00
   0.000000000000000E+00   0.000000000000000E+00   0.000000000000000E+00
   0.000000000000000E+00   0.000000000000000E+00   0.000000000000000E+00
   0.000000000000000E+00   0.000000000000000E+00   0.000000000000000E+00
   0.000000000000000E+00   0.000000000000000E+00   0.000000000000000E+00
   0.000000000000000E+00   0.000000000000000E+00   0.000000000000000E+00
   0.000000000000000E+00   0.000000000000000E+00   0.000000000000000E+00
   0.000000000000000E+00   0.000000000000000E+00   0.000000000000000E+00
   0.000000000000000E+00   0.000000000000000E+00   0.000000000000000E+00
   0.000000000000000E+00   0.000000000000000E+00   0.000000000000000E+00
   0.000000000000000E+00   0.000000000000000E+00
      </PP_QIJL.3.4.2>
      <PP_QIJL.4.4.0 first_index="4" second_index="4" composite_index="10" angular_momentum="0" size="1211">
   1.453271807689044E-10   1.490061558482693E-10   1.527782646242889E-10
   1.566458647876734E-10   1.606113737143556E-10   1.646772699764284E-10
   1.688460948913336E-10   1.731204541102676E-10   1.775030192467975E-10
   1.819965295467083E-10   1.866037936001179E-10   1.913276910969383E-10
   1.961711746267753E-10   2.011372715243927E-10   2.062290857618958E-10
   2.114497998888125E-10   2.168026770212922E-10   2.222910628816580E-10
   2.279183878895919E-10   2.336881693062598E-10   2.396040134327118E-10
   2.456696178639383E-10   2.518887737999872E-10   2.582653684155858E-10
   2.648033872897534E-10   2.715069168969141E-10   2.783801471610785E-10
   2.854273740746810E-10   2.926530023837138E-10   3.000615483408382E-10
   3.076576425281863E-10   3.154460327516260E-10   3.234315870082937E-10
   3.316192965292498E-10   3.400142788991612E-10   3.486217812549558E-10
   3.574471835654530E-10   3.664960019940199E-10   3.757738923463508E-10
   3.852866536055308E-10   3.950402315565852E-10   4.050407225027897E-10
   4.152943770760558E-10   4.258076041437790E-10   4.365869748145902E-10
   4.476392265455067E-10   4.589712673530636E-10   4.705901801310484E-10
   4.825032270775351E-10   4.947178542339990E-10   5.072416961393259E-10
   5.200825806016509E-10   5.332485335909900E-10   5.467477842557283E-10
   5.605887700661094E-10   5.747801420879210E-10   5.893307703896920E-10
   6.042497495867737E-10   6.195464045257641E-10   6.352302961128444E-10
   6.513112272896466E-10   6.677992491604118E-10   6.847046672742544E-10
   7.020380480664611E-10   7.198102254628579E-10   7.380323076513569E-10
   7.567156840249345E-10   7.758720323003695E-10   7.955133258171889E-10
   8.156518410213980E-10   8.363001651386444E-10   8.574712040416459E-10
   8.791781903167726E-10   9.014346915348394E-10   9.242546187312797E-10
   9.476522351009781E-10   9.716421649132343E-10   9.962394026523984E-10
   1.021459322389902E-09   1.047317687393556E-09   1.073830659980085E-09
   1.101014811617101E-09   1.128887133280805E-09   1.157465046075880E-09
   1.186766412124256E-09   1.216809545729491E-09   1.247613224823808E-09
   1.279196702704899E-09   1.311579720069851E-09   1.344782517353717E-09
   1.378825847380431E-09   1.413730988333980E-09   1.449519757057960E-09
   1.486214522691787E-09   1.523838220652137E-09   1.562414366968293E-09
   1.601967072980429E-09   1.642521060409951E-09   1.684101676811369E-09
   1.726734911415330E-09   1.770447411372691E-09   1.815266498409854E-09
   1.861220185905704E-09   1.908337196400856E-09   1.956646979550168E-09
   2.006179730529685E-09   2.056966408909598E-09   2.109038758004943E-09
   2.162429324716179E-09   2.217171479872040E-09   2.273299439087331E-09
   2.330848284148788E-09   2.389853984942286E-09   2.450353421935152E-09
   2.512384409227632E-09   2.575985718187866E-09   2.641197101685222E-09
   2.708059318937092E-09   2.776614160984664E-09   2.846904476813649E-09
   2.918974200136221E-09   2.992868376850967E-09   3.068633193197968E-09
   3.146316004626652E-09   3.225965365394425E-09   3.307631058914570E-09
   3.391364128872448E-09   3.477216911129369E-09   3.565243066434130E-09
   3.655497613962667E-09   3.748036965706695E-09   3.842918961732975E-09
   3.940202906335119E-09   4.039949605100611E-09   4.142221402916177E-09
   4.247082222935214E-09   4.354597606531751E-09   4.464834754265804E-09
   4.577862567885752E-09   4.693751693394088E-09   4.812574565203249E-09
   4.934405451409369E-09   5.059320500212073E-09   5.187397787509406E-09
   5.318717365697643E-09   5.453361313706421E-09   5.591413788300549E-09
   5.732961076680526E-09   5.878091650414591E-09   6.026896220736152E-09
   6.179467795240954E-09   6.335901736019608E-09   6.496295819261749E-09
   6.660750296369017E-09   6.829367956615185E-09   7.002254191392428E-09
   7.179517060084072E-09   7.361267357604864E-09   7.547618683651018E-09
   7.738687513703384E-09   7.934593271827925E-09   8.135458405319265E-09
   8.341408461233772E-09   8.552572164860056E-09   8.769081500176046E-09
   8.991071792342571E-09   9.218681792285671E-09   9.452053763419649E-09
   9.691333570565823E-09   9.936670771122204E-09   1.018821870854087E-08
   1.044613460817211E-08   1.071057967553454E-08   1.098171919707297E-08
   1.125972264346713E-08   1.154476377555529E-08   1.183702075293974E-08
   1.213667624534122E-08   1.244391754677247E-08   1.275893669260217E-08
   1.308193057958186E-08   1.341310108891200E-08   1.375265521242282E-08
   1.410080518194975E-08   1.445776860198391E-08   1.482376858568034E-08
   1.519903389430984E-08   1.558379908024029E-08   1.597830463353802E-08
   1.638279713228026E-08   1.679752939667227E-08   1.722276064706678E-08
   1.765875666598267E-08   1.810578996422576E-08   1.856413995121475E-08
   1.903409310961857E-08   1.951594317441529E-08   2.000999131648301E-08
   2.051654633083899E-08   2.103592482964375E-08   2.156845144009054E-08
   2.211445900730532E-08   2.267428880238188E-08   2.324829073568417E-08
   2.383682357554803E-08   2.444025517251875E-08   2.505896268926613E-08
   2.569333283631865E-08   2.634376211376581E-08   2.701065705907896E-08
   2.769443450120503E-08   2.839552182109348E-08   2.911435721881735E-08
   2.985138998745689E-08   3.060708079391651E-08   3.138190196684951E-08
   3.217633779187297E-08   3.299088481425424E-08   3.382605214926070E-08
   3.468236180036572E-08   3.556034898550898E-08   3.646056247161725E-08
   3.738356491759178E-08   3.832993322597913E-08   3.930025890354423E-08
   4.029514843096998E-08   4.131522364191730E-08   4.236112211167897E-08
   4.343349755567281E-08   4.453302023802257E-08   4.566037739048035E-08
   4.681627364195563E-08   4.800143145891531E-08   4.921659159693336E-08
   5.046251356367095E-08   5.173997609357486E-08   5.304977763459497E-08
   5.439273684721982E-08   5.576969311614609E-08   5.718150707490056E-08
   5.862906114374048E-08   6.011326008117282E-08   6.163503154943189E-08
   6.319532669427285E-08   6.479512073944150E-08   6.643541359619180E-08
   6.811723048823288E-08   6.984162259249533E-08   7.160966769611748E-08
   7.342247087006260E-08   7.528116515978682E-08   7.718691229339114E-08
   7.914090340769774E-08   8.114435979270686E-08   8.319853365489771E-08
   8.530470889985020E-08   8.746420193467883E-08   8.967836249077643E-08
   9.194857446738583E-08   9.427625679652389E-08   9.666286432979888E-08
   9.910988874767649E-08   1.016188594917610E-07   1.041913447206753E-07
   1.068289522901371E-07   1.095333307578420E-07   1.123061704137845E-07
   1.151492043366565E-07   1.180642094769885E-07   1.210530077677049E-07
   1.241174672627907E-07   1.272595033047818E-07   1.304810797218040E-07
   1.337842100549133E-07   1.371709588165022E-07   1.406434427805572E-07
   1.442038323055775E-07   1.478543526909754E-07   1.515972855678114E-07
   1.554349703247315E-07   1.593698055699941E-07   1.634042506305049E-07
   1.675408270887932E-07   1.717821203588900E-07   1.761307813020947E-07
   1.805895278836356E-07   1.851611468712646E-07   1.898484955768416E-07
   1.946545036420001E-07   1.995821748690103E-07   2.046345890979784E-07
   2.098149041315613E-07   2.151263577083931E-07   2.205722695264600E-07
   2.261560433176875E-07   2.318811689750307E-07   2.377512247334042E-07
   2.437698794058066E-07   2.499408946760415E-07   2.562681274494636E-07
   2.627555322632198E-07   2.694071637574908E-07   2.762271792092746E-07
   2.832198411302976E-07   2.903895199306734E-07   2.977406966499722E-07
   3.052779657574099E-07   3.130060380229009E-07   3.209297434607710E-07
   3.290540343479687E-07   3.373839883186551E-07   3.459248115371123E-07
   3.546818419509432E-07   3.636605526266006E-07   3.728665551693267E-07
   3.823056032296327E-07   3.919835960985193E-07   4.019065823936687E-07
   4.120807638389216E-07   4.225124991393939E-07   4.332083079546467E-07
   4.441748749724028E-07   4.554190540853388E-07   4.669478726735704E-07
   4.787685359954975E-07   4.908884316897573E-07   5.033151343910820E-07
   5.160564104629570E-07   5.291202228500269E-07   5.425147360532722E-07
   5.562483212310753E-07   5.703295614293390E-07   5.847672569439444E-07
   5.995704308188766E-07   6.147483344834528E-07   6.303104535321843E-07
   6.462665136508480E-07   6.626264866924987E-07   6.794005969071902E-07
   6.965993273292978E-07   7.142334263264363E-07   7.323139143140311E-07
   7.508520906397679E-07   7.698595406421843E-07   7.893481428878192E-07
   8.093300765914370E-07   8.298178292239346E-07   8.508242043127007E-07
   8.723623294392742E-07   8.944456644392877E-07   9.170880098098282E-07
   9.403035153294166E-07   9.641066888960282E-07   9.885124055886239E-07
   1.013535916957859E-06   1.039192860551763E-06   1.065499269682300E-06
   1.092471583438933E-06   1.120126656955411E-06   1.148481771936163E-06
   1.177554647448900E-06   1.207363450990083E-06   1.237926809830215E-06
   1.269263822645984E-06   1.301394071446508E-06   1.334337633801130E-06
   1.368115095376323E-06   1.402747562789586E-06   1.438256676788269E-06
   1.474664625761561E-06   1.511994159594057E-06   1.550268603869485E-06
   1.589511874433488E-06   1.629748492324483E-06   1.671003599081892E-06
   1.713302972441292E-06   1.756673042426195E-06   1.801140907846525E-06
   1.846734353214018E-06   1.893481866085049E-06   1.941412654841727E-06
   1.990556666922215E-06   2.040944607511700E-06   2.092607958705577E-06
   2.145578999156756E-06   2.199890824219302E-06   2.255577366600950E-06
   2.312673417537243E-06   2.371214648500530E-06   2.431237633457251E-06
   2.492779871687319E-06   2.555879811179806E-06   2.620576872619372E-06
   2.686911473978419E-06   2.754925055730121E-06   2.824660106698043E-06
   2.896160190558342E-06   2.969469973010962E-06   3.044635249636696E-06
   3.121702974457366E-06   3.200721289216796E-06   3.281739553400742E-06
   3.364808375014323E-06   3.449979642136051E-06   3.537306555267968E-06
   3.626843660501894E-06   3.718646883522359E-06   3.812773564467112E-06
   3.909282493666946E-06   4.008233948286778E-06   4.109689729890676E-06
   4.213713202954082E-06   4.320369334346912E-06   4.429724733811989E-06
   4.541847695463787E-06   4.656808240333021E-06   4.774678159983433E-06
   4.895531061227493E-06   5.019442411968782E-06   5.146489588199124E-06
   5.276751922179529E-06   5.410310751834535E-06   5.547249471390348E-06
   5.687653583287983E-06   5.831610751403299E-06   5.979210855606575E-06
   6.130546047695316E-06   6.285710808734365E-06   6.444802007838809E-06
   6.607918962435541E-06   6.775163500040531E-06   6.946640021589630E-06
   7.122455566361680E-06   7.302719878533763E-06   7.487545475409251E-06
   7.677047717360402E-06   7.871344879528317E-06   8.070558225323882E-06
   8.274812081774856E-06   8.484233916764844E-06   8.698954418211334E-06
   8.919107575231160E-06   9.144830761342567E-06   9.376264819754856E-06
   9.613554150797208E-06   9.856846801539915E-06   1.010629455766261E-05
   1.036205303762490E-05   1.062428178919688E-05   1.089314438840779E-05
   1.116880854097283E-05   1.145144618625955E-05   1.174123360385632E-05
   1.203835152280780E-05   1.234298523358286E-05   1.265532470284267E-05
   1.297556469107807E-05   1.330390487318676E-05   1.364054996206334E-05
   1.398570983527579E-05   1.433959966490476E-05   1.470244005062353E-05
   1.507445715609779E-05   1.545588284878755E-05   1.584695484323399E-05
   1.624791684791715E-05   1.665901871577181E-05   1.708051659845095E-05
   1.751267310442875E-05   1.795575746103692E-05   1.841004568052996E-05
   1.887582073027848E-05   1.935337270719002E-05   1.984299901646138E-05
   2.034500455476710E-05   2.085970189799206E-05   2.138741149361864E-05
   2.192846185788057E-05   2.248318977779995E-05   2.305194051822440E-05
   2.363506803398585E-05   2.423293518730430E-05   2.484591397056238E-05
   2.547438573458072E-05   2.611874142252578E-05   2.677938180958506E-05
   2.745671774854860E-05   2.815117042143674E-05   2.886317159731991E-05
   2.959316389647707E-05   3.034160106104395E-05   3.110894823230571E-05
   3.189568223479046E-05   3.270229186732619E-05   3.352927820122426E-05
   3.437715488575836E-05   3.524644846111068E-05   3.613769867895976E-05
   3.705145883089046E-05   3.798829608480814E-05   3.894879182954401E-05
   3.993354202784285E-05   4.094315757792674E-05   4.197826468383488E-05
   4.303950523474139E-05   4.412753719345836E-05   4.524303499433570E-05
   4.638668995077217E-05   4.755921067255873E-05   4.876132349327746E-05
   4.999377290798450E-05   5.125732202141088E-05   5.255275300691714E-05
   5.388086757644565E-05   5.524248746171564E-05   5.663845490691302E-05
   5.806963317313125E-05   5.953690705482181E-05   6.104118340852246E-05
   6.258339169413094E-05   6.416448452900034E-05   6.578543825513460E-05
   6.744725351976924E-05   6.915095586962610E-05   7.089759635913633E-05
   7.268825217292944E-05   7.452402726289346E-05   7.640605300011195E-05
   7.833548884199346E-05   8.031352301490890E-05   8.234137321266011E-05
   8.442028731110650E-05   8.655154409927938E-05   8.873645402732219E-05
   9.097635997159454E-05   9.327263801728563E-05   9.562669825888499E-05
   9.803998561886201E-05   1.005139806849124E-04   1.030502005661301E-04
   1.056501997684684E-04   1.083155710898575E-04   1.110479465353473E-04
   1.138489982526492E-04   1.167204394884527E-04   1.196640255658922E-04
   1.226815548835477E-04   1.257748699363560E-04   1.289458583588194E-04
   1.321964539908939E-04   1.355286379669410E-04   1.389444398281290E-04
   1.424459386586654E-04   1.460352642462472E-04   1.497145982671069E-04
   1.534861754960380E-04   1.573522850417741E-04   1.613152716080951E-04
   1.653775367810332E-04   1.695415403425408E-04   1.738098016109789E-04
   1.781849008087822E-04   1.826694804576390E-04   1.872662468015297E-04
   1.919779712579453E-04   1.968074918976025E-04   2.017577149529626E-04
   2.068316163558369E-04   2.120322433043646E-04   2.173627158596117E-04
   2.228262285720413E-04   2.284260521380731E-04   2.341655350869310E-04
   2.400481054979629E-04   2.460772727485783E-04   2.522566292929357E-04
   2.585898524714719E-04   2.650807063513356E-04   2.717330435977624E-04
   2.785508073763789E-04   2.855380332863884E-04   2.926988513245573E-04
   3.000374878798529E-04   3.075582677585644E-04   3.152656162396589E-04
   3.231640611600860E-04   3.312582350296752E-04   3.395528771752065E-04
   3.480528359131753E-04   3.567630707506862E-04   3.656886546138398E-04
   3.748347761028975E-04   3.842067417734045E-04   3.938099784423826E-04
   4.036500355185778E-04   4.137325873556606E-04   4.240634356271570E-04
   4.346485117217589E-04   4.454938791575599E-04   4.566057360136001E-04
   4.679904173769756E-04   4.796543978036197E-04   4.916042937906845E-04
   5.038468662583052E-04   5.163890230383307E-04   5.292378213674212E-04
   5.424004703817166E-04   5.558843336100460E-04   5.696969314624635E-04
   5.838459437106081E-04   5.983392119561744E-04   6.131847420834999E-04
   6.283907066919808E-04   6.439654475037699E-04   6.599174777418577E-04
   6.762554844733364E-04   6.929883309122937E-04   7.101250586764023E-04
   7.276748899909206E-04   7.456472298333794E-04   7.640516680118223E-04
   7.828979811690207E-04   8.021961347045871E-04   8.219562846064580E-04
   8.421887791826406E-04   8.629041606836162E-04   8.841131668051786E-04
   9.058267320608977E-04   9.280559890127555E-04   9.508122693478301E-04
   9.741071047881891E-04   9.979522278204477E-04   1.022359572230602E-03
   1.047341273429021E-03   1.072909668549560E-03   1.099077296305868E-03
   1.125856896587078E-03   1.153261409773985E-03   1.181303975755889E-03
   1.209997932627118E-03   1.239356815041149E-03   1.269394352199078E-03
   1.300124465447848E-03   1.331561265462538E-03   1.363719048985410E-03
   1.396612295093175E-03   1.430255660962435E-03   1.464663977101537E-03
   1.499852242015722E-03   1.535835616270492E-03   1.572629415916501E-03
   1.610249105237463E-03   1.648710288780420E-03   1.688028702626027E-03
   1.728220204854104E-03   1.769300765157716E-03   1.811286453556753E-03
   1.854193428159451E-03   1.898037921918103E-03   1.942836228322350E-03
   1.988604685970985E-03   2.035359661960401E-03   2.083117534024777E-03
   2.131894671360380E-03   2.181707414062962E-03   2.232572051104264E-03
   2.284504796770176E-03   2.337521765479627E-03   2.391638944899864E-03
   2.446872167269857E-03   2.503237078839917E-03   2.560749107331689E-03
   2.619423427318360E-03   2.679274923421126E-03   2.740318151213211E-03
   2.802567295718571E-03   2.866036127387817E-03   2.930737955428893E-03
   2.996685578365756E-03   3.063891231692741E-03   3.132366532487697E-03
   3.202122420841715E-03   3.273169097957665E-03   3.345515960764941E-03
   3.419171532891770E-03   3.494143391831239E-03   3.570438092131557E-03
   3.648061084434998E-03   3.727016630184819E-03   3.807307711813053E-03
   3.888935938216661E-03   3.971901445323689E-03   4.056202791544975E-03
   4.141836847901714E-03   4.228798682612956E-03   4.317081439921953E-03
   4.406676212934728E-03   4.497571910238619E-03   4.589755116064105E-03
   4.683209943747658E-03   4.777917882249285E-03   4.873857635474227E-03
   4.971004954143951E-03   5.069332459958963E-03   5.168809461792396E-03
   5.269401763651534E-03   5.371071464142844E-03   5.473776747174781E-03
   5.577471663633425E-03   5.682105903766147E-03   5.787624560011034E-03
   5.893967880012991E-03   6.001071009571265E-03   6.108863725269955E-03
   6.217270156549611E-03   6.326208496987605E-03   6.435590704566122E-03
   6.545322190719036E-03   6.655301497965091E-03   6.765419965951716E-03
   6.875561385754721E-03   6.985601642302326E-03   7.095408344817897E-03
   7.204840445206250E-03   7.313747844341035E-03   7.421970986248443E-03
   7.529340440224170E-03   7.635676470966015E-03   7.740788596856396E-03
   7.844475136584546E-03   7.946522744360328E-03   8.046705934039822E-03
   8.144786592556307E-03   8.240513483132445E-03   8.333621738837019E-03
   8.423832347146398E-03   8.510851626275132E-03   8.594370694153185E-03
   8.674064931049968E-03   8.749593436977274E-03   8.820598485145926E-03
   8.886704972904265E-03   8.947519871751183E-03   9.002631678193427E-03
   9.051609867405851E-03   9.094004351855716E-03   9.129344947268294E-03
   9.157140848540638E-03   9.176880118455721E-03   9.188029192308801E-03
   9.190032401833484E-03   9.182311522106868E-03   9.164265345420969E-03
   9.135269286432776E-03   9.094675023246849E-03   9.041810179443657E-03
   8.975978052442683E-03   8.896457393982980E-03   8.802502248913682E-03
   8.693341858913938E-03   8.568180638204638E-03   8.426198228771936E-03
   8.266549643095538E-03   8.088365502859751E-03   7.890752382622808E-03
   7.672793267927037E-03   7.433548137846441E-03   7.172054682489423E-03
   6.887329166494630E-03   6.578367450080665E-03   6.244146179723771E-03
   5.883624161045672E-03   5.495743926983151E-03   5.079433514781928E-03
   4.633608465801992E-03   4.157174062528312E-03   3.649027817550595E-03
   3.108062229589490E-03   2.533167821900618E-03   1.923236478573219E-03
   1.277165094334095E-03   5.938595534736319E-04  -1.277609466016670E-04
  -8.887592119226169E-04  -1.690174993724250E-03  -2.533019541080237E-03
  -3.418269750773332E-03  -4.346861901695193E-03  -5.319684962213033E-03
  -6.337573460325151E-03  -7.401299908093903E-03  -8.511566773791281E-03
  -9.668997997474034E-03  -1.087413004833071E-02  -1.212740252514179E-02
  -1.342914830461298E-02  -1.477958324617906E-02  -1.617879546619353E-02
  -1.762673419922607E-02  -1.912319826951112E-02  -2.066782420148099E-02
  -2.226007400475892E-02  -2.389922267604553E-02  -2.558434546800000E-02
  -2.731430498351037E-02  -2.908773816270182E-02  -3.090304323960840E-02
  -3.275836675567401E-02  -3.465159072811134E-02  -3.658032008260995E-02
  -3.854187047194355E-02  -4.053325661458237E-02  -4.255118130045982E-02
  -4.459202522445478E-02  -4.665183782183643E-02  -4.872632929378311E-02
  -5.081086402493163E-02  -5.290045560861859E-02  -5.498976370880131E-02
  -5.707309300035940E-02  -5.914439444134208E-02  -6.119726914137993E-02
  -6.322497509963491E-02  -6.522043709289468E-02  -6.717625999930371E-02
  -6.908474584532481E-02  -7.093791486227019E-02  -7.272753083363018E-02
  -7.444513100482372E-02  -7.608206081225780E-02  -7.762951366807100E-02
  -7.907857600988781E-02  -8.042027779064762E-02  -8.164564854131275E-02
  -8.274577908826300E-02  -8.371188894672596E-02  -8.453539934093258E-02
  -8.520801172019077E-02  -8.572179154712570E-02  -8.606925702945345E-02
  -8.624347234948591E-02  -8.623814481589087E-02  -8.604772522009080E-02
  -8.566751052531742E-02  -8.509374785033032E-02  -8.432373853306292E-02
  -8.335594087332281E-02  -8.219006995993622E-02  -8.082719278873639E-02
  -7.926981667648988E-02  -7.752196877582054E-02  -7.558926430177319E-02
  -7.347896089693799E-02  -7.119999639497983E-02  -6.876300709879905E-02
  -6.618032357705400E-02  -6.346594091005395E-02  -6.063546029251633E-02
  -5.770599893671274E-02  -5.469606532619301E-02  -5.162539705920090E-02
  -4.851475880430119E-02  -4.538569828089126E-02  -4.226025868647736E-02
  -3.916064663265435E-02  -3.610885543346003E-02  -3.312624452269725E-02
  -3.023307686818026E-02  -2.744801750525378E-02  -2.478759773028079E-02
  -2.226565107342213E-02  -1.989272889992956E-02  -1.767550535457864E-02
  -1.561618334153777E-02  -1.371191528982504E-02  -1.195425455061688E-02
  -1.033194924857678E-02  -8.842376115882566E-03  -7.484916442250578E-03
  -6.258128751779890E-03  -5.159738007664616E-03  -4.186626586853148E-03
  -3.334827516575711E-03  -2.599520624372464E-03  -1.975032431787482E-03
  -1.454840817977032E-03  -1.031585691224524E-03  -6.970871308791815E-04
  -4.423726957197838E-04  -2.577158323024964E-04  -1.326875520736293E-04
  -5.622377138111978E-05  -1.671091442409511E-05  -2.092554470589647E-06
   2.775557561562891E-17   0.000000000000000E+00   0.000000000000000E+00
   0.000000000000000E+00   0.000000000000000E+00   0.000000000000000E+00
   0.000000000000000E+00   0.000000000000000E+00   0.000000000000000E+00
   0.000000000000000E+00   0.000000000000000E+00   0.000000000000000E+00
   0.000000000000000E+00   0.000000000000000E+00   0.000000000000000E+00
   0.000000000000000E+00   0.000000000000000E+00   0.000000000000000E+00
   0.000000000000000E+00   0.000000000000000E+00   0.000000000000000E+00
   0.000000000000000E+00   0.000000000000000E+00   0.000000000000000E+00
   0.000000000000000E+00   0.000000000000000E+00   0.000000000000000E+00
   0.000000000000000E+00   0.000000000000000E+00   0.000000000000000E+00
   0.000000000000000E+00   0.000000000000000E+00   0.000000000000000E+00
   0.000000000000000E+00   0.000000000000000E+00   0.000000000000000E+00
   0.000000000000000E+00   0.000000000000000E+00   0.000000000000000E+00
   0.000000000000000E+00   0.000000000000000E+00   0.000000000000000E+00
   0.000000000000000E+00   0.000000000000000E+00   0.000000000000000E+00
   0.000000000000000E+00   0.000000000000000E+00   0.000000000000000E+00
   0.000000000000000E+00   0.000000000000000E+00   0.000000000000000E+00
   0.000000000000000E+00   0.000000000000000E+00   0.000000000000000E+00
   0.000000000000000E+00   0.000000000000000E+00   0.000000000000000E+00
   0.000000000000000E+00   0.000000000000000E+00   0.000000000000000E+00
   0.000000000000000E+00   0.000000000000000E+00   0.000000000000000E+00
   0.000000000000000E+00   0.000000000000000E+00   0.000000000000000E+00
   0.000000000000000E+00   0.000000000000000E+00   0.000000000000000E+00
   0.000000000000000E+00   0.000000000000000E+00   0.000000000000000E+00
   0.000000000000000E+00   0.000000000000000E+00   0.000000000000000E+00
   0.000000000000000E+00   0.000000000000000E+00   0.000000000000000E+00
   0.000000000000000E+00   0.000000000000000E+00   0.000000000000000E+00
   0.000000000000000E+00   0.000000000000000E+00   0.000000000000000E+00
   0.000000000000000E+00   0.000000000000000E+00   0.000000000000000E+00
   0.000000000000000E+00   0.000000000000000E+00   0.000000000000000E+00
   0.000000000000000E+00   0.000000000000000E+00   0.000000000000000E+00
   0.000000000000000E+00   0.000000000000000E+00   0.000000000000000E+00
   0.000000000000000E+00   0.000000000000000E+00   0.000000000000000E+00
   0.000000000000000E+00   0.000000000000000E+00   0.000000000000000E+00
   0.000000000000000E+00   0.000000000000000E+00   0.000000000000000E+00
   0.000000000000000E+00   0.000000000000000E+00   0.000000000000000E+00
   0.000000000000000E+00   0.000000000000000E+00   0.000000000000000E+00
   0.000000000000000E+00   0.000000000000000E+00   0.000000000000000E+00
   0.000000000000000E+00   0.000000000000000E+00   0.000000000000000E+00
   0.000000000000000E+00   0.000000000000000E+00   0.000000000000000E+00
   0.000000000000000E+00   0.000000000000000E+00   0.000000000000000E+00
   0.000000000000000E+00   0.000000000000000E+00   0.000000000000000E+00
   0.000000000000000E+00   0.000000000000000E+00   0.000000000000000E+00
   0.000000000000000E+00   0.000000000000000E+00   0.000000000000000E+00
   0.000000000000000E+00   0.000000000000000E+00   0.000000000000000E+00
   0.000000000000000E+00   0.000000000000000E+00   0.000000000000000E+00
   0.000000000000000E+00   0.000000000000000E+00   0.000000000000000E+00
   0.000000000000000E+00   0.000000000000000E+00   0.000000000000000E+00
   0.000000000000000E+00   0.000000000000000E+00   0.000000000000000E+00
   0.000000000000000E+00   0.000000000000000E+00   0.000000000000000E+00
   0.000000000000000E+00   0.000000000000000E+00   0.000000000000000E+00
   0.000000000000000E+00   0.000000000000000E+00   0.000000000000000E+00
   0.000000000000000E+00   0.000000000000000E+00   0.000000000000000E+00
   0.000000000000000E+00   0.000000000000000E+00   0.000000000000000E+00
   0.000000000000000E+00   0.000000000000000E+00   0.000000000000000E+00
   0.000000000000000E+00   0.000000000000000E+00   0.000000000000000E+00
   0.000000000000000E+00   0.000000000000000E+00   0.000000000000000E+00
   0.000000000000000E+00   0.000000000000000E+00   0.000000000000000E+00
   0.000000000000000E+00   0.000000000000000E+00   0.000000000000000E+00
   0.000000000000000E+00   0.000000000000000E+00   0.000000000000000E+00
   0.000000000000000E+00   0.000000000000000E+00   0.000000000000000E+00
   0.000000000000000E+00   0.000000000000000E+00   0.000000000000000E+00
   0.000000000000000E+00   0.000000000000000E+00   0.000000000000000E+00
   0.000000000000000E+00   0.000000000000000E+00   0.000000000000000E+00
   0.000000000000000E+00   0.000000000000000E+00   0.000000000000000E+00
   0.000000000000000E+00   0.000000000000000E+00   0.000000000000000E+00
   0.000000000000000E+00   0.000000000000000E+00   0.000000000000000E+00
   0.000000000000000E+00   0.000000000000000E+00   0.000000000000000E+00
   0.000000000000000E+00   0.000000000000000E+00   0.000000000000000E+00
   0.000000000000000E+00   0.000000000000000E+00   0.000000000000000E+00
   0.000000000000000E+00   0.000000000000000E+00   0.000000000000000E+00
   0.000000000000000E+00   0.000000000000000E+00   0.000000000000000E+00
   0.000000000000000E+00   0.000000000000000E+00   0.000000000000000E+00
   0.000000000000000E+00   0.000000000000000E+00   0.000000000000000E+00
   0.000000000000000E+00   0.000000000000000E+00   0.000000000000000E+00
   0.000000000000000E+00   0.000000000000000E+00   0.000000000000000E+00
   0.000000000000000E+00   0.000000000000000E+00   0.000000000000000E+00
   0.000000000000000E+00   0.000000000000000E+00   0.000000000000000E+00
   0.000000000000000E+00   0.000000000000000E+00   0.000000000000000E+00
   0.000000000000000E+00   0.000000000000000E+00   0.000000000000000E+00
   0.000000000000000E+00   0.000000000000000E+00   0.000000000000000E+00
   0.000000000000000E+00   0.000000000000000E+00   0.000000000000000E+00
   0.000000000000000E+00   0.000000000000000E+00   0.000000000000000E+00
   0.000000000000000E+00   0.000000000000000E+00   0.000000000000000E+00
   0.000000000000000E+00   0.000000000000000E+00   0.000000000000000E+00
   0.000000000000000E+00   0.000000000000000E+00   0.000000000000000E+00
   0.000000000000000E+00   0.000000000000000E+00   0.000000000000000E+00
   0.000000000000000E+00   0.000000000000000E+00   0.000000000000000E+00
   0.000000000000000E+00   0.000000000000000E+00   0.000000000000000E+00
   0.000000000000000E+00   0.000000000000000E+00   0.000000000000000E+00
   0.000000000000000E+00   0.000000000000000E+00   0.000000000000000E+00
   0.000000000000000E+00   0.000000000000000E+00   0.000000000000000E+00
   0.000000000000000E+00   0.000000000000000E+00   0.000000000000000E+00
   0.000000000000000E+00   0.000000000000000E+00   0.000000000000000E+00
   0.000000000000000E+00   0.000000000000000E+00   0.000000000000000E+00
   0.000000000000000E+00   0.000000000000000E+00   0.000000000000000E+00
   0.000000000000000E+00   0.000000000000000E+00   0.000000000000000E+00
   0.000000000000000E+00   0.000000000000000E+00   0.000000000000000E+00
   0.000000000000000E+00   0.000000000000000E+00   0.000000000000000E+00
   0.000000000000000E+00   0.000000000000000E+00   0.000000000000000E+00
   0.000000000000000E+00   0.000000000000000E+00   0.000000000000000E+00
   0.000000000000000E+00   0.000000000000000E+00   0.000000000000000E+00
   0.000000000000000E+00   0.000000000000000E+00   0.000000000000000E+00
   0.000000000000000E+00   0.000000000000000E+00   0.000000000000000E+00
   0.000000000000000E+00   0.000000000000000E+00   0.000000000000000E+00
   0.000000000000000E+00   0.000000000000000E+00
      </PP_QIJL.4.4.0>
      <PP_QIJL.4.4.2 first_index="4" second_index="4" composite_index="10" angular_momentum="2" size="1211">
  -3.892936345035370E-19  -4.092531459430876E-19  -4.302360034162103E-19
  -4.522946749959346E-19  -4.754843188509155E-19  -4.998629211695794E-19
  -5.254914411558010E-19  -5.524339634586643E-19  -5.807578584174603E-19
  -6.105339505226377E-19  -6.418366955139039E-19  -6.747443665583632E-19
  -7.093392499742020E-19  -7.457078509893421E-19  -7.839411100495782E-19
  -8.241346302170420E-19  -8.663889162276649E-19  -9.108096258053635E-19
  -9.575078338613775E-19  -1.006600310239417E-18  -1.058209811701070E-18
  -1.112465388881662E-18  -1.169502708984050E-18  -1.229464395017298E-18
  -1.292500382428493E-18  -1.358768294019435E-18  -1.428433834085762E-18
  -1.501671202763985E-18  -1.578663531622556E-18  -1.659603341586197E-18
  -1.744693024338459E-18  -1.834145348406356E-18  -1.928183991192509E-18
  -2.027044098285141E-18  -2.130972871444547E-18  -2.240230186736218E-18
  -2.355089244356375E-18  -2.475837251774754E-18  -2.602776141902862E-18
  -2.736223328083549E-18  -2.876512497789633E-18  -3.023994447016414E-18
  -3.179037957454367E-18  -3.342030718635428E-18  -3.513380297358796E-18
  -3.693515156820133E-18  -3.882885727992762E-18  -4.081965535939690E-18
  -4.291252383872874E-18  -4.511269597920586E-18  -4.742567335715205E-18
  -4.985723962073898E-18  -5.241347495211886E-18  -5.510077127104610E-18
  -5.792584821800689E-18  -6.089576995681872E-18  -6.401796283872011E-18
  -6.730023397211614E-18  -7.075079074441535E-18  -7.437826134477401E-18
  -7.819171633906093E-18  -8.220069135099756E-18  -8.641521090618303E-18
  -9.084581349862899E-18  -9.550357794248430E-18  -1.004001510748386E-17
  -1.055477768788820E-17  -1.109593271002395E-17  -1.166483334330383E-17
  -1.226290213561922E-17  -1.289163457045047E-17  -1.355260280635471E-17
  -1.424745960818083E-17  -1.497794247984243E-17  -1.574587800898266E-17
  -1.655318643439425E-17  -1.740188644761674E-17  -1.829410024071665E-17
  -1.923205881287274E-17  -2.021810754903608E-17  -2.125471208461346E-17
  -2.234446447084026E-17  -2.349008965625829E-17  -2.469445230050624E-17
  -2.596056393746076E-17  -2.729159050563915E-17  -2.869086026469456E-17
  -3.016187211779841E-17  -3.170830436072010E-17  -3.333402387948252E-17
  -3.504309581959015E-17  -3.683979375101005E-17  -3.872861035432219E-17
  -4.071426865476032E-17  -4.280173383223508E-17  -4.499622563686841E-17
  -4.730323144108760E-17  -4.972851996091357E-17  -5.227815568075469E-17
  -5.495851401777649E-17  -5.777629726376324E-17  -6.073855134433806E-17
  -6.385268343744568E-17  -6.712648049515406E-17  -7.056812871509026E-17
  -7.418623401019546E-17  -7.798984352798940E-17  -8.198846827314951E-17
  -8.619210688997470E-17  -9.061127066420338E-17  -9.525700980669872E-17
  -1.001409410847308E-16  -1.052752768699426E-16  -1.106728556756372E-16
  -1.163471742597474E-16  -1.223124213737546E-16  -1.285835132419567E-16
  -1.351761308597942E-16  -1.421067592045025E-16  -1.493927284561387E-16
  -1.570522573320519E-16  -1.651044986431633E-16  -1.735695871859629E-16
  -1.824686900899839E-16  -1.918240597466468E-16  -2.016590894518190E-16
  -2.119983719012352E-16  -2.228677606850372E-16  -2.342944349352079E-16
  -2.463069672875514E-16  -2.589353953281518E-16  -2.722112967029763E-16
  -2.861678680784270E-16  -3.008400081502841E-16  -3.162644049086156E-16
  -3.324796273768421E-16  -3.495262220543725E-16  -3.674468143039569E-16
  -3.862862149372760E-16  -4.060915322652981E-16  -4.269122898935651E-16
  -4.488005505569863E-16  -4.718110463037687E-16  -4.960013153540193E-16
  -5.214318459752424E-16  -5.481662277344793E-16  -5.762713105053202E-16
  -6.058173716273748E-16  -6.368782916361847E-16  -6.695317390030167E-16
  -7.038593643464391E-16  -7.399470046013603E-16  -7.778848976560231E-16
  -8.177679079936735E-16  -8.596957639031335E-16  -9.037733068513882E-16
  -9.501107536418078E-16  -9.988239720134909E-16  -1.050034770370880E-15
  -1.103871202368150E-15  -1.160467887109932E-15  -1.219966345769113E-15
  -1.282515355463365E-15  -1.348271321275324E-15  -1.417398667346662E-15
  -1.490070248023893E-15  -1.566467780084216E-15  -1.646782297121881E-15
  -1.731214627231547E-15  -1.819975895182967E-15  -1.913288050342621E-15
  -2.011384421662616E-15  -2.114510301124312E-15  -2.222923557095825E-15
  -2.336895279137031E-15  -2.456710455864304E-15  -2.582668687570314E-15
  -2.715084935380391E-15  -2.854290308819075E-15  -3.000632893756058E-15
  -3.154478622801645E-15  -3.316212190328590E-15  -3.486238014407807E-15
  -3.664981248063752E-15  -3.852888842377897E-15  -4.050430664098537E-15
  -4.258100670551927E-15  -4.476418144792058E-15  -4.705928994078069E-15
  -4.947207114926024E-15  -5.200855828148061E-15  -5.467509387468013E-15
  -5.747834565484847E-15  -6.042532320950479E-15  -6.352339551530674E-15
  -6.678030936431552E-15  -7.020420873500059E-15  -7.380365515641060E-15
  -7.758764911644081E-15  -8.156565256772496E-15  -8.574761258742385E-15
  -9.014398625008398E-15  -9.476576677574578E-15  -9.962451101869837E-15
  -1.047323683656115E-14  -1.101021111152997E-14  -1.157471664160988E-14
  -1.216816498406954E-14  -1.279204006823790E-14  -1.344790190609706E-14
  -1.413739049312039E-14  -1.486222990911193E-14  -1.562423262929890E-14
  -1.642530405645914E-14  -1.726744728541555E-14  -1.815276811181021E-14
  -1.908348029768508E-14  -2.006191110703297E-14  -2.109050712516292E-14
  -2.217184037643041E-14  -2.330861475562909E-14  -2.450367278912818E-14
  -2.576000274265872E-14  -2.708074609352429E-14  -2.846920538592002E-14
  -2.992885248900019E-14  -3.146333727834794E-14  -3.307649676255055E-14
  -3.477236467770466E-14  -3.655518157384217E-14  -3.842940541849524E-14
  -4.039972274392015E-14  -4.247106036584745E-14  -4.464859770306618E-14
  -4.693777972864595E-14  -4.934433058517850E-14  -5.187426789809082E-14
  -5.453391782281201E-14  -5.732993086342558E-14  -6.026929850236078E-14
  -6.335937068270104E-14  -6.660787418683316E-14  -7.002293195738312E-14
  -7.361308340875818E-14  -7.738730578008163E-14  -8.135503658291193E-14
  -8.552619719988072E-14  -8.991121769325395E-14  -9.452106288545350E-14
  -9.936725977675239E-14  -1.044619263687011E-13  -1.098178019653601E-13
  -1.154482790281034E-13  -1.213674366636518E-13  -1.275900758290669E-13
  -1.341317563417396E-13  -1.410088357869167E-13  -1.482385104200510E-13
  -1.558388581662561E-13  -1.638288838243820E-13  -1.722285665887456E-13
  -1.810589100073460E-13  -1.903419945014816E-13  -2.001010325780984E-13
  -2.103604268729258E-13  -2.211458311695342E-13  -2.324842145469003E-13
  -2.444039288158696E-13  -2.569347794131522E-13  -2.701080999301154E-13
  -2.839568304627304E-13  -2.985155999785976E-13  -3.138208129069922E-13
  -3.299107401684634E-13  -3.468256148715992E-13  -3.646077329162422E-13
  -3.833015587547263E-13  -4.029538365755724E-13  -4.236137071876705E-13
  -4.453328308972162E-13  -4.681655166846377E-13  -4.921688580045424E-13
  -5.174028755482279E-13  -5.439306673257477E-13  -5.718185664428058E-13
  -6.011363069669871E-13  -6.319571982980996E-13  -6.643583084785963E-13
  -6.984206569024789E-13  -7.342294169045351E-13  -7.718741287364623E-13
  -8.114489234624559E-13  -8.530527583340737E-13  -8.967896642329455E-13
  -9.427690058000560E-13  -9.911057549020209E-13  -1.041920778118193E-12
  -1.095341138967403E-12  -1.151500415630096E-12  -1.210539034960282E-12
  -1.272604623622486E-12  -1.337852377231742E-12  -1.406445448419598E-12
  -1.478555354796532E-12  -1.554362407830839E-12  -1.634056163716378E-12
  -1.717835897356611E-12  -1.805911100650026E-12  -1.898502006322968E-12
  -1.995840138619655E-12  -2.098168892226341E-12  -2.205744140877264E-12
  -2.318834877164072E-12  -2.437723885148623E-12  -2.562708447460971E-12
  -2.694101088650530E-12  -2.832230356649259E-12  -2.977441644300709E-12
  -3.130098053009251E-12  -3.290581300668943E-12  -3.459292676142178E-12
  -3.636654042674872E-12  -3.823108892757005E-12  -4.019123457066241E-12
  -4.225187870267370E-12  -4.441817396582704E-12  -4.669553718197592E-12
  -4.908966289722949E-12  -5.160653762101307E-12  -5.425245479516734E-12
  -5.703403053051713E-12  -5.995822015025400E-12  -6.303233558150218E-12
  -6.626406363855044E-12  -6.966148524346619E-12  -7.323309563215328E-12
  -7.698782559637058E-12  -8.093506381483282E-12  -8.508468032922308E-12
  -8.944705122381955E-12  -9.403308457044614E-12  -9.885424770361226E-12
  -1.039225958940502E-11  -1.092508024923353E-11  -1.148521906179640E-11
  -1.207407664731239E-11  -1.269312543644468E-11  -1.334391335203198E-11
  -1.402806767958040E-11  -1.474729913619388E-11  -1.550340614811709E-11
  -1.629827934758539E-11  -1.713390630022651E-11  -1.801237647483306E-11
  -1.893588646793235E-11  -1.990674549621684E-11  -2.092738117056696E-11
  -2.200034556610449E-11  -2.312832160345255E-11  -2.431412975715739E-11
  -2.556073510804543E-11  -2.687125475714732E-11  -2.824896561972734E-11
  -2.969731261890434E-11  -3.121991729935043E-11  -3.282058688260499E-11
  -3.450332378664225E-11  -3.627233563349665E-11  -3.813204576996499E-11
  -4.008710432769064E-11  -4.214239985028302E-11  -4.430307151654022E-11
  -4.657452199033902E-11  -4.896243092931623E-11  -5.147276918611758E-11
  -5.411181373772001E-11  -5.688616338015044E-11  -5.980275522784502E-11
  -6.286888205889606E-11  -6.609221054955324E-11  -6.948080044357019E-11
  -7.304312470431738E-11  -7.678809070004923E-11  -8.072506247528795E-11
  -8.486388416400463E-11  -8.921490460313393E-11  -9.378900320795849E-11
  -9.859761717404844E-11  -1.036527700737704E-10  -1.089671019188503E-10
  -1.145539007641531E-10  -1.204271359316873E-10  -1.266014929378914E-10
  -1.330924102115264E-10  -1.399161176939629E-10  -1.470896774183648E-10
  -1.546310261692153E-10  -1.625590203288288E-10  -1.708934830229642E-10
  -1.796552536833990E-10  -1.888662401513634E-10  -1.985494734520885E-10
  -2.087291653773923E-10  -2.194307690202591E-10  -2.306810424127296E-10
  -2.425081154261886E-10  -2.549415601012896E-10  -2.680124645833112E-10
  -2.817535108477858E-10  -2.961990564106765E-10  -3.113852202273593E-10
  -3.273499729951395E-10  -3.441332320850106E-10  -3.617769613399693E-10
  -3.803252759893359E-10  -3.998245529413256E-10  -4.203235467295586E-10
  -4.418735114033128E-10  -4.645283286662041E-10  -4.883446425835642E-10
  -5.133820011952200E-10  -5.397030053876313E-10  -5.673734653974683E-10
  -5.964625653378112E-10  -6.270430361581778E-10  -6.591913374706510E-10
  -6.929878486965799E-10  -7.285170700115320E-10  -7.658678335907619E-10
  -8.051335256831109E-10  -8.464123200683465E-10  -8.898074234814046E-10
  -9.354273336168376E-10  -9.833861103582892E-10  -1.033803660910782E-09
  -1.086806039548358E-09  -1.142525762726177E-09  -1.201102140344430E-09
  -1.262681623991957E-09  -1.327418173039705E-09  -1.395473639501016E-09
  -1.467018172600572E-09  -1.542230644142849E-09  -1.621299095559004E-09
  -1.704421208014315E-09  -1.791804796497269E-09  -1.883668329302529E-09
  -1.980241474093579E-09  -2.081765671992372E-09  -2.188494741006931E-09
  -2.300695510592106E-09  -2.418648488392993E-09  -2.542648561575722E-09
  -2.673005733703597E-09  -2.810045899644631E-09  -2.954111660103376E-09
  -3.105563177889949E-09  -3.264779078111558E-09  -3.432157394385693E-09
  -3.608116563771223E-09  -3.793096472370631E-09  -3.987559554844541E-09
  -4.191991949968455E-09  -4.406904715735253E-09  -4.632835106368318E-09
  -4.870347917396742E-09  -5.120036881653906E-09  -5.382526196850198E-09
  -5.658472015103199E-09  -5.948564151304833E-09  -6.253527765796324E-09
  -6.574125187003007E-09  -6.911157828328447E-09  -7.265468170943294E-09
  -7.637941877658907E-09  -8.029509999446308E-09  -8.441151330104661E-09
  -8.873894820528368E-09  -9.328822141491216E-09  -9.807070430946028E-09
  -1.030983508376103E-08  -1.083837278058215E-08  -1.139400460078932E-08
  -1.197811933967688E-08  -1.259217695184064E-08  -1.323771222422730E-08
  -1.391633861840141E-08  -1.462975226824748E-08  -1.537973622699715E-08
  -1.616816493675734E-08  -1.699700890112063E-08  -1.786833959785890E-08
  -1.878433468625807E-08  -1.974728337587807E-08  -2.075959223272457E-08
  -2.182379112593981E-08  -2.294253957129726E-08  -2.411863335276393E-08
  -2.535501154483257E-08  -2.665476379399515E-08  -2.802113809342230E-08
  -2.945754884580688E-08  -3.096758541697707E-08  -3.255502108127849E-08
  -3.422382246061594E-08  -3.597815940604349E-08  -3.782241537344543E-08
  -3.976119851868164E-08  -4.179935298017483E-08  -4.394197113441558E-08
  -4.619440625889697E-08  -4.856228588570349E-08  -5.105152580695941E-08
  -5.366834493609184E-08  -5.641928073592945E-08  -5.931120562108698E-08
  -6.235134396677046E-08  -6.554729029153757E-08  -6.890702811699081E-08
  -7.243894991690882E-08  -7.615187800172219E-08  -8.005508663542068E-08
  -8.415832499493409E-08  -8.847184175807870E-08  -9.300641031002131E-08
  -9.777335596116786E-08  -1.027845839238220E-07  -1.080526091908663E-07
  -1.135905875956516E-07  -1.194123486682603E-07  -1.255324302029711E-07
  -1.319661143336880E-07  -1.387294657359948E-07  -1.458393716717363E-07
  -1.533135840045576E-07  -1.611707635022213E-07  -1.694305263490013E-07
  -1.781134929559471E-07  -1.872413393894691E-07  -1.968368513375815E-07
  -2.069239809127955E-07  -2.175279062372981E-07  -2.286750942414779E-07
  -2.403933665235145E-07  -2.527119685816245E-07  -2.656616427157273E-07
  -2.792747045021469E-07  -2.935851232471185E-07  -3.086286065117814E-07
  -3.244426890006316E-07  -3.410668259843483E-07  -3.585424913273263E-07
  -3.769132808854974E-07  -3.962250207117314E-07  -4.165258811829615E-07
  -4.378664966984722E-07  -4.603000916425037E-07  -4.838826125889193E-07
  -5.086728674786029E-07  -5.347326716872420E-07  -5.621270016658762E-07
  -5.909241562959423E-07  -6.211959266980045E-07  -6.530177743171109E-07
  -6.864690184533337E-07  -7.216330331824544E-07  -7.585974542181352E-07
  -7.974543964717035E-07  -8.383006826176047E-07  -8.812380832995320E-07
  -9.263735694324482E-07  -9.738195776751444E-07  -1.023694288995833E-06
  -1.076121921737317E-06  -1.131233039429781E-06  -1.189164874207532E-06
  -1.250061666783685E-06  -1.314075023682553E-06  -1.381364292556284E-06
  -1.452096956560633E-06  -1.526449048897370E-06  -1.604605588195314E-06
  -1.686761036231658E-06  -1.773119778583190E-06  -1.863896629942636E-06
  -1.959317364911424E-06  -2.059619275704787E-06  -2.165051758246727E-06
  -2.275876927810769E-06  -2.392370265902651E-06  -2.514821299930398E-06
  -2.643534317313551E-06  -2.778829115610165E-06  -2.921041790734392E-06
  -3.070525564932512E-06  -3.227651656672545E-06  -3.392810194496921E-06
  -3.566411177006500E-06  -3.748885481402834E-06  -3.940685922807155E-06
  -4.142288367208133E-06  -4.354192900337614E-06  -4.576925055745528E-06
  -4.811037104466297E-06  -5.057109409869347E-06  -5.315751850717958E-06
  -5.587605315611740E-06  -5.873343272996563E-06  -6.173673419684923E-06
  -6.489339412591398E-06  -6.821122687170839E-06  -7.169844367267005E-06
  -7.536367270840222E-06  -7.921598016054505E-06  -8.326489233190639E-06
  -8.752041887035853E-06  -9.199307715794073E-06  -9.669391791827070E-06
  -1.016345521041189E-05  -1.068271791290288E-05  -1.122846165072079E-05
  -1.180203309731346E-05  -1.240484711512002E-05  -1.303839018546609E-05
  -1.370422400890596E-05  -1.440398928485175E-05  -1.513940967910077E-05
  -1.591229598798019E-05  -1.672455050955959E-05  -1.757817163117522E-05
  -1.847525864449495E-05  -1.941801679838043E-05  -2.040876260200471E-05
  -2.144992938944492E-05  -2.254407315912025E-05  -2.369387870086387E-05
  -2.490216602449359E-05  -2.617189710492399E-05  -2.750618295819289E-05
  -2.890829106485222E-05  -3.038165315728792E-05  -3.192987338787520E-05
  -3.355673689685036E-05  -3.526621879806948E-05  -3.706249360319724E-05
  -3.894994510459330E-05  -4.093317673882368E-05  -4.301702245318196E-05
  -4.520655809927451E-05  -4.750711337774130E-05  -4.992428436045148E-05
  -5.246394661684501E-05  -5.513226897251244E-05  -5.793572792926386E-05
  -6.088112277740999E-05  -6.397559143196891E-05  -6.722662702623914E-05
  -7.064209529709712E-05  -7.423025279857343E-05  -7.799976598093509E-05
  -8.195973117458226E-05  -8.611969551982956E-05  -9.048967888458812E-05
  -9.508019681476341E-05  -9.990228456272036E-05  -1.049675222421690E-04
  -1.102880611589617E-04  -1.158766513695399E-04  -1.217466705206317E-04
  -1.279121540260744E-04  -1.343878266386033E-04  -1.411891354764400E-04
  -1.483322845672639E-04  -1.558342709737400E-04  -1.637129225675944E-04
  -1.719869375216112E-04  -1.806759255908251E-04  -1.898004512571915E-04
  -1.993820788143127E-04  -2.094434194711920E-04  -2.200081805567003E-04
  -2.311012169089295E-04  -2.427485845363471E-04  -2.549775966399099E-04
  -2.678168820882684E-04  -2.812964464407597E-04  -2.954477356149295E-04
  -3.103037022987368E-04  -3.258988752092057E-04  -3.422694313024836E-04
  -3.594532710418776E-04  -3.774900968335472E-04  -3.964214947408380E-04
  -4.162910195911367E-04  -4.371442835901374E-04  -4.590290485609132E-04
  -4.819953219260640E-04  -5.060954565528730E-04  -5.313842545825151E-04
  -5.579190753641680E-04  -5.857599476167344E-04  -6.149696859394445E-04
  -6.456140117930682E-04  -6.777616790720806E-04  -7.114846043871598E-04
  -7.468580021747053E-04  -7.839605247481545E-04  -8.228744074019937E-04
  -8.636856186753865E-04  -9.064840158774060E-04  -9.513635059698688E-04
  -9.984222118968435E-04  -1.047762644441762E-03  -1.099491879684044E-03
  -1.153721742116028E-03  -1.210568993469676E-03  -1.270155527288301E-03
  -1.332608569263633E-03  -1.398060883341337E-03  -1.466650983578937E-03
  -1.538523351719029E-03  -1.613828660417352E-03  -1.692724002038480E-03
  -1.775373122904690E-03  -1.861946662850588E-03  -1.952622399902636E-03
  -2.047585499864544E-03  -2.147028770548082E-03  -2.251152920344154E-03
  -2.360166820779648E-03  -2.474287772652647E-03  -2.593741775280515E-03
  -2.718763798333092E-03  -2.849598055655369E-03  -2.986498280410925E-03
  -3.129728000798858E-03  -3.279560815512078E-03  -3.436280668013264E-03
  -3.600182118607677E-03  -3.771570613186348E-03  -3.950762747401151E-03
  -4.138086524913675E-03  -4.333881608230474E-03  -4.538499560502183E-03
  -4.752304076517192E-03  -4.975671200966977E-03  -5.208989531896119E-03
  -5.452660407075640E-03  -5.707098070855738E-03  -5.972729818858614E-03
  -6.249996117668580E-03  -6.539350696461209E-03  -6.841260607286082E-03
  -7.156206250482839E-03  -7.484681361459701E-03  -7.827192954806770E-03
  -8.184261221446311E-03  -8.556419374240962E-03  -8.944213437193078E-03
  -9.348201973065889E-03  -9.768955743950137E-03  -1.020705729898297E-02
  -1.066310048309958E-02  -1.113768986037113E-02  -1.163144004514439E-02
  -1.214497493386277E-02  -1.267892683010990E-02  -1.323393545507689E-02
  -1.381064683532464E-02  -1.440971205938121E-02  -1.503178589440204E-02
  -1.567752525381389E-02  -1.634758750658094E-02  -1.704262861847050E-02
  -1.776330111545799E-02  -1.851025185921784E-02  -1.928411962448121E-02
  -2.008553246793490E-02  -2.091510487828012E-02  -2.177343469707430E-02
  -2.266109980006884E-02  -2.357865452891454E-02  -2.452662586337310E-02
  -2.550550932454142E-02  -2.651576460007890E-02  -2.755781088305776E-02
  -2.863202191681956E-02  -2.973872073916017E-02  -3.087817412028153E-02
  -3.205058669025673E-02  -3.325609475329409E-02  -3.449475978784274E-02
  -3.576656163361124E-02  -3.707139136886695E-02  -3.840904388397529E-02
  -3.977921016006001E-02  -4.118146926491012E-02  -4.261528008187965E-02
  -4.407997279152381E-02  -4.557474013010574E-02  -4.709862845393863E-02
  -4.865052864377288E-02  -5.022916688915514E-02  -5.183309539885952E-02
  -5.346068309013193E-02  -5.511010631662567E-02  -5.677933970249668E-02
  -5.846614715820764E-02  -6.016807316211922E-02  -6.188243440090219E-02
  -6.360631187118225E-02  -6.533654355454098E-02  -6.706971778803460E-02
  -6.880216746265493E-02  -7.052996519256338E-02  -7.224891960840228E-02
  -7.395457293836073E-02  -7.564220005085012E-02  -7.730680914242780E-02
  -7.894314426380761E-02  -8.054568988522383E-02  -8.210867770977212E-02
  -8.362609594941284E-02  -8.509170128273925E-02  -8.649903371605255E-02
  -8.784143456938714E-02  -8.911206780644207E-02  -9.030394492149078E-02
  -9.140995358675141E-02  -9.242289024989306E-02  -9.333549685280530E-02
  -9.414050181886521E-02  -9.483066542614156E-02  -9.539882964765016E-02
  -9.583797249631756E-02  -9.614126686112172E-02  -9.630214376135889E-02
  -9.631435987759815E-02  -9.617206914011735E-02  -9.586989806804370E-02
  -9.540302445472432E-02  -9.476725888681911E-02  -9.395912846620053E-02
  -9.297596197511215E-02  -9.181597558657006E-02  -9.047835807433270E-02
  -8.896335432093352E-02  -8.727234575958827E-02  -8.540792621806828E-02
  -8.337397146214411E-02  -8.117570056572547E-02  -7.881972706781128E-02
  -7.631409771681356E-02  -7.366831645552341E-02  -7.089335117044321E-02
  -6.800162062366286E-02  -6.500695891105730E-02  -6.192455475517349E-02
  -5.877086295349081E-02  -5.556348537226968E-02  -5.232101901305201E-02
  -4.906286889388847E-02  -4.580902379165561E-02  -4.257979329687776E-02
  -3.939550514970657E-02  -3.627616246615156E-02  -3.324106123771559E-02
  -3.030836940430717E-02  -2.749466986704707E-02  -2.481447102927835E-02
  -2.227968983237610E-02  -1.989911378563887E-02  -1.767785016929920E-02
  -1.561677240339479E-02  -1.371197550268567E-02  -1.195425455061688E-02
  -1.033194924857678E-02  -8.842376115882566E-03  -7.484916442250578E-03
  -6.258128751779890E-03  -5.159738007664616E-03  -4.186626586853148E-03
  -3.334827516575711E-03  -2.599520624372464E-03  -1.975032431787482E-03
  -1.454840817977032E-03  -1.031585691224524E-03  -6.970871308791815E-04
  -4.423726957197838E-04  -2.577158323024964E-04  -1.326875520736293E-04
  -5.622377138111978E-05  -1.671091442409511E-05  -2.092554470589647E-06
   2.775557561562891E-17   0.000000000000000E+00   0.000000000000000E+00
   0.000000000000000E+00   0.000000000000000E+00   0.000000000000000E+00
   0.000000000000000E+00   0.000000000000000E+00   0.000000000000000E+00
   0.000000000000000E+00   0.000000000000000E+00   0.000000000000000E+00
   0.000000000000000E+00   0.000000000000000E+00   0.000000000000000E+00
   0.000000000000000E+00   0.000000000000000E+00   0.000000000000000E+00
   0.000000000000000E+00   0.000000000000000E+00   0.000000000000000E+00
   0.000000000000000E+00   0.000000000000000E+00   0.000000000000000E+00
   0.000000000000000E+00   0.000000000000000E+00   0.000000000000000E+00
   0.000000000000000E+00   0.000000000000000E+00   0.000000000000000E+00
   0.000000000000000E+00   0.000000000000000E+00   0.000000000000000E+00
   0.000000000000000E+00   0.000000000000000E+00   0.000000000000000E+00
   0.000000000000000E+00   0.000000000000000E+00   0.000000000000000E+00
   0.000000000000000E+00   0.000000000000000E+00   0.000000000000000E+00
   0.000000000000000E+00   0.000000000000000E+00   0.000000000000000E+00
   0.000000000000000E+00   0.000000000000000E+00   0.000000000000000E+00
   0.000000000000000E+00   0.000000000000000E+00   0.000000000000000E+00
   0.000000000000000E+00   0.000000000000000E+00   0.000000000000000E+00
   0.000000000000000E+00   0.000000000000000E+00   0.000000000000000E+00
   0.000000000000000E+00   0.000000000000000E+00   0.000000000000000E+00
   0.000000000000000E+00   0.000000000000000E+00   0.000000000000000E+00
   0.000000000000000E+00   0.000000000000000E+00   0.000000000000000E+00
   0.000000000000000E+00   0.000000000000000E+00   0.000000000000000E+00
   0.000000000000000E+00   0.000000000000000E+00   0.000000000000000E+00
   0.000000000000000E+00   0.000000000000000E+00   0.000000000000000E+00
   0.000000000000000E+00   0.000000000000000E+00   0.000000000000000E+00
   0.000000000000000E+00   0.000000000000000E+00   0.000000000000000E+00
   0.000000000000000E+00   0.000000000000000E+00   0.000000000000000E+00
   0.000000000000000E+00   0.000000000000000E+00   0.000000000000000E+00
   0.000000000000000E+00   0.000000000000000E+00   0.000000000000000E+00
   0.000000000000000E+00   0.000000000000000E+00   0.000000000000000E+00
   0.000000000000000E+00   0.000000000000000E+00   0.000000000000000E+00
   0.000000000000000E+00   0.000000000000000E+00   0.000000000000000E+00
   0.000000000000000E+00   0.000000000000000E+00   0.000000000000000E+00
   0.000000000000000E+00   0.000000000000000E+00   0.000000000000000E+00
   0.000000000000000E+00   0.000000000000000E+00   0.000000000000000E+00
   0.000000000000000E+00   0.000000000000000E+00   0.000000000000000E+00
   0.000000000000000E+00   0.000000000000000E+00   0.000000000000000E+00
   0.000000000000000E+00   0.000000000000000E+00   0.000000000000000E+00
   0.000000000000000E+00   0.000000000000000E+00   0.000000000000000E+00
   0.000000000000000E+00   0.000000000000000E+00   0.000000000000000E+00
   0.000000000000000E+00   0.000000000000000E+00   0.000000000000000E+00
   0.000000000000000E+00   0.000000000000000E+00   0.000000000000000E+00
   0.000000000000000E+00   0.000000000000000E+00   0.000000000000000E+00
   0.000000000000000E+00   0.000000000000000E+00   0.000000000000000E+00
   0.000000000000000E+00   0.000000000000000E+00   0.000000000000000E+00
   0.000000000000000E+00   0.000000000000000E+00   0.000000000000000E+00
   0.000000000000000E+00   0.000000000000000E+00   0.000000000000000E+00
   0.000000000000000E+00   0.000000000000000E+00   0.000000000000000E+00
   0.000000000000000E+00   0.000000000000000E+00   0.000000000000000E+00
   0.000000000000000E+00   0.000000000000000E+00   0.000000000000000E+00
   0.000000000000000E+00   0.000000000000000E+00   0.000000000000000E+00
   0.000000000000000E+00   0.000000000000000E+00   0.000000000000000E+00
   0.000000000000000E+00   0.000000000000000E+00   0.000000000000000E+00
   0.000000000000000E+00   0.000000000000000E+00   0.000000000000000E+00
   0.000000000000000E+00   0.000000000000000E+00   0.000000000000000E+00
   0.000000000000000E+00   0.000000000000000E+00   0.000000000000000E+00
   0.000000000000000E+00   0.000000000000000E+00   0.000000000000000E+00
   0.000000000000000E+00   0.000000000000000E+00   0.000000000000000E+00
   0.000000000000000E+00   0.000000000000000E+00   0.000000000000000E+00
   0.000000000000000E+00   0.000000000000000E+00   0.000000000000000E+00
   0.000000000000000E+00   0.000000000000000E+00   0.000000000000000E+00
   0.000000000000000E+00   0.000000000000000E+00   0.000000000000000E+00
   0.000000000000000E+00   0.000000000000000E+00   0.000000000000000E+00
   0.000000000000000E+00   0.000000000000000E+00   0.000000000000000E+00
   0.000000000000000E+00   0.000000000000000E+00   0.000000000000000E+00
   0.000000000000000E+00   0.000000000000000E+00   0.000000000000000E+00
   0.000000000000000E+00   0.000000000000000E+00   0.000000000000000E+00
   0.000000000000000E+00   0.000000000000000E+00   0.000000000000000E+00
   0.000000000000000E+00   0.000000000000000E+00   0.000000000000000E+00
   0.000000000000000E+00   0.000000000000000E+00   0.000000000000000E+00
   0.000000000000000E+00   0.000000000000000E+00   0.000000000000000E+00
   0.000000000000000E+00   0.000000000000000E+00   0.000000000000000E+00
   0.000000000000000E+00   0.000000000000000E+00   0.000000000000000E+00
   0.000000000000000E+00   0.000000000000000E+00   0.000000000000000E+00
   0.000000000000000E+00   0.000000000000000E+00   0.000000000000000E+00
   0.000000000000000E+00   0.000000000000000E+00   0.000000000000000E+00
   0.000000000000000E+00   0.000000000000000E+00   0.000000000000000E+00
   0.000000000000000E+00   0.000000000000000E+00   0.000000000000000E+00
   0.000000000000000E+00   0.000000000000000E+00   0.000000000000000E+00
   0.000000000000000E+00   0.000000000000000E+00   0.000000000000000E+00
   0.000000000000000E+00   0.000000000000000E+00   0.000000000000000E+00
   0.000000000000000E+00   0.000000000000000E+00   0.000000000000000E+00
   0.000000000000000E+00   0.000000000000000E+00   0.000000000000000E+00
   0.000000000000000E+00   0.000000000000000E+00   0.000000000000000E+00
   0.000000000000000E+00   0.000000000000000E+00   0.000000000000000E+00
   0.000000000000000E+00   0.000000000000000E+00   0.000000000000000E+00
   0.000000000000000E+00   0.000000000000000E+00   0.000000000000000E+00
   0.000000000000000E+00   0.000000000000000E+00   0.000000000000000E+00
   0.000000000000000E+00   0.000000000000000E+00   0.000000000000000E+00
   0.000000000000000E+00   0.000000000000000E+00   0.000000000000000E+00
   0.000000000000000E+00   0.000000000000000E+00   0.000000000000000E+00
   0.000000000000000E+00   0.000000000000000E+00   0.000000000000000E+00
   0.000000000000000E+00   0.000000000000000E+00   0.000000000000000E+00
   0.000000000000000E+00   0.000000000000000E+00   0.000000000000000E+00
   0.000000000000000E+00   0.000000000000000E+00   0.000000000000000E+00
   0.000000000000000E+00   0.000000000000000E+00   0.000000000000000E+00
   0.000000000000000E+00   0.000000000000000E+00   0.000000000000000E+00
   0.000000000000000E+00   0.000000000000000E+00   0.000000000000000E+00
   0.000000000000000E+00   0.000000000000000E+00   0.000000000000000E+00
   0.000000000000000E+00   0.000000000000000E+00   0.000000000000000E+00
   0.000000000000000E+00   0.000000000000000E+00   0.000000000000000E+00
   0.000000000000000E+00   0.000000000000000E+00   0.000000000000000E+00
   0.000000000000000E+00   0.000000000000000E+00   0.000000000000000E+00
   0.000000000000000E+00   0.000000000000000E+00   0.000000000000000E+00
   0.000000000000000E+00   0.000000000000000E+00
      </PP_QIJL.4.4.2>
    </PP_AUGMENTATION>
  </PP_NONLOCAL>
  <PP_PSWFC>
    <PP_CHI.1 size="1211" index="1" label="4S" l="0" occupation="2.0000000000000000" n="1" cutoff_radius="1.5000000000000000" ultrasoft_cutoff_radius="1.8999999999999999">
   3.143296408363957E-05   3.182834209894271E-05   3.222869335744385E-05
   3.263408041484130E-05   3.304456661368712E-05   3.346021609328461E-05
   3.388109379971017E-05   3.430726549596126E-05   3.473879777223196E-05
   3.517575805631800E-05   3.561821462415219E-05   3.606623661047296E-05
   3.651989401962659E-05   3.697925773650565E-05   3.744439953762496E-05
   3.791539210233665E-05   3.839230902418654E-05   3.887522482241331E-05
   3.936421495359224E-05   3.985935582342552E-05   4.036072479868065E-05
   4.086840021927933E-05   4.138246141053808E-05   4.190298869556306E-05
   4.243006340780076E-05   4.296376790374640E-05   4.350418557581238E-05
   4.405140086535849E-05   4.460549927588599E-05   4.516656738639792E-05
   4.573469286492691E-05   4.630996448223375E-05   4.689247212567788E-05
   4.748230681326243E-05   4.807956070785626E-05   4.868432713159415E-05
   4.929670058045888E-05   4.991677673904631E-05   5.054465249551632E-05
   5.118042595673186E-05   5.182419646358812E-05   5.247606460653494E-05
   5.313613224129419E-05   5.380450250477493E-05   5.448127983118897E-05
   5.516656996836848E-05   5.586047999428970E-05   5.656311833380389E-05
   5.727459477557902E-05   5.799502048925452E-05   5.872450804281152E-05
   5.946317142016211E-05   6.021112603895936E-05   6.096848876863156E-05
   6.173537794864359E-05   6.251191340698728E-05   6.329821647890501E-05
   6.409441002584857E-05   6.490061845467642E-05   6.571696773709274E-05
   6.654358542933041E-05   6.738060069208217E-05   6.822814431068224E-05
   6.908634871554157E-05   6.995534800284073E-05   7.083527795548229E-05
   7.172627606430745E-05   7.262848154957918E-05   7.354203538273561E-05
   7.446708030841724E-05   7.540376086677087E-05   7.635222341603450E-05
   7.731261615540584E-05   7.828508914819894E-05   7.926979434529202E-05
   8.026688560886971E-05   8.127651873646444E-05   8.229885148530024E-05
   8.333404359694252E-05   8.438225682225826E-05   8.544365494668945E-05
   8.651840381584524E-05   8.760667136141544E-05   8.870862762741031E-05
   8.982444479673029E-05   9.095429721806973E-05   9.209836143315943E-05
   9.325681620435152E-05   9.442984254255141E-05   9.561762373550128E-05
   9.682034537641887E-05   9.803819539299700E-05   9.927136407676744E-05
   1.005200441128345E-04   1.017844306099826E-04   1.030647211311620E-04
   1.043611157243586E-04   1.056738169538519E-04   1.070030299318660E-04
   1.083489623506188E-04   1.097118245147742E-04   1.110918293743028E-04
   1.124891925577554E-04   1.139041324059559E-04   1.153368700061173E-04
   1.167876292263864E-04   1.182566367508246E-04   1.197441221148269E-04
   1.212503177409878E-04   1.227754589754176E-04   1.243197841245155E-04
   1.258835344922056E-04   1.274669544176411E-04   1.290702913133826E-04
   1.306937957040573E-04   1.323377212655033E-04   1.340023248644069E-04
   1.356878665984393E-04   1.373946098368963E-04   1.391228212618516E-04
   1.408727709098246E-04   1.426447322139760E-04   1.444389820468306E-04
   1.462558007635400E-04   1.480954722456890E-04   1.499582839456515E-04
   1.518445269315063E-04   1.537544959325167E-04   1.556884893851826E-04
   1.576468094798720E-04   1.596297622080382E-04   1.616376574100319E-04
   1.636708088235145E-04   1.657295341324795E-04   1.678141550168922E-04
   1.699249972029520E-04   1.720623905139878E-04   1.742266689219936E-04
   1.764181705998124E-04   1.786372379739763E-04   1.808842177782105E-04
   1.831594611076123E-04   1.854633234735092E-04   1.877961648590089E-04
   1.901583497752470E-04   1.925502473183427E-04   1.949722312270700E-04
   1.974246799412561E-04   1.999079766609122E-04   2.024225094061106E-04
   2.049686710776118E-04   2.075468595182570E-04   2.101574775751311E-04
   2.128009331625089E-04   2.154776393255920E-04   2.181880143050475E-04
   2.209324816023594E-04   2.237114700460010E-04   2.265254138584400E-04
   2.293747527239871E-04   2.322599318574965E-04   2.351814020739316E-04
   2.381396198588063E-04   2.411350474395106E-04   2.441681528575356E-04
   2.472394100416031E-04   2.503492988817216E-04   2.534983053041667E-04
   2.566869213474086E-04   2.599156452389949E-04   2.631849814733977E-04
   2.664954408908433E-04   2.698475407571302E-04   2.732418048444535E-04
   2.766787635132458E-04   2.801589537950438E-04   2.836829194764045E-04
   2.872512111838691E-04   2.908643864700006E-04   2.945230099005025E-04
   2.982276531424308E-04   3.019788950535213E-04   3.057773217726337E-04
   3.096235268113379E-04   3.135181111466511E-04   3.174616833149397E-04
   3.214548595070066E-04   3.254982636643688E-04   3.295925275767506E-04
   3.337382909808020E-04   3.379362016600558E-04   3.421869155461478E-04
   3.464910968213042E-04   3.508494180221213E-04   3.552625601446521E-04
   3.597312127508083E-04   3.642560740761107E-04   3.688378511387838E-04
   3.734772598502308E-04   3.781750251268966E-04   3.829318810035318E-04
   3.877485707478927E-04   3.926258469768721E-04   3.975644717740988E-04
   4.025652168090144E-04   4.076288634574440E-04   4.127562029236908E-04
   4.179480363641589E-04   4.232051750125359E-04   4.285284403065500E-04
   4.339186640163163E-04   4.393766883743052E-04   4.449033662069395E-04
   4.504995610678492E-04   4.561661473728033E-04   4.619040105363336E-04
   4.677140471100883E-04   4.735971649229103E-04   4.795542832226895E-04
   4.855863328199978E-04   4.916942562335220E-04   4.978790078373396E-04
   5.041415540100342E-04   5.104828732856941E-04   5.169039565068105E-04
   5.234058069790909E-04   5.299894406282306E-04   5.366558861586495E-04
   5.434061852142240E-04   5.502413925410483E-04   5.571625761522321E-04
   5.641708174947836E-04   5.712672116185801E-04   5.784528673474692E-04
   5.857289074525266E-04   5.930964688274803E-04   6.005567026663570E-04
   6.081107746433491E-04   6.157598650949539E-04   6.235051692043994E-04
   6.313478971883873E-04   6.392892744861918E-04   6.473305419511309E-04
   6.554729560444472E-04   6.637177890316309E-04   6.720663291812052E-04
   6.805198809660204E-04   6.890797652670720E-04   6.977473195798879E-04
   7.065238982235097E-04   7.154108725521008E-04   7.244096311692165E-04
   7.335215801447728E-04   7.427481432347403E-04   7.520907621036030E-04
   7.615508965496126E-04   7.711300247328827E-04   7.808296434063427E-04
   7.906512681495999E-04   8.005964336057490E-04   8.106666937211503E-04
   8.208636219882336E-04   8.311888116913463E-04   8.416438761556996E-04
   8.522304489994465E-04   8.629501843889257E-04   8.738047572971195E-04
   8.847958637653603E-04   8.959252211683312E-04   9.071945684823965E-04
   9.186056665573077E-04   9.301602983913324E-04   9.418602694098316E-04
   9.537074077473530E-04   9.657035645332662E-04   9.778506141809890E-04
   9.901504546808559E-04   1.002605007896669E-03   1.015216219865971E-03
   1.027986061104108E-03   1.040916526912107E-03   1.054009637688427E-03
   1.067267439244630E-03   1.080692003125029E-03   1.094285426930350E-03
   1.108049834645460E-03   1.121987376971230E-03   1.136100231660563E-03
   1.150390603858642E-03   1.164860726447471E-03   1.179512860394741E-03
   1.194349295107087E-03   1.209372348787785E-03   1.224584368798939E-03
   1.239987732028245E-03   1.255584845260348E-03   1.271378145552878E-03
   1.287370100617211E-03   1.303563209204019E-03   1.319960001493676E-03
   1.336563039491560E-03   1.353374917428338E-03   1.370398262165284E-03
   1.387635733604681E-03   1.405090025105406E-03   1.422763863903717E-03
   1.440660011539355E-03   1.458781264286983E-03   1.477130453593069E-03
   1.495710446518247E-03   1.514524146185259E-03   1.533574492232504E-03
   1.552864461273319E-03   1.572397067361012E-03   1.592175362459765E-03
   1.612202436921430E-03   1.632481419968352E-03   1.653015480182237E-03
   1.673807825999181E-03   1.694861706210928E-03   1.716180410472407E-03
   1.737767269815684E-03   1.759625657170355E-03   1.781758987890478E-03
   1.804170720288152E-03   1.826864356173790E-03   1.849843441403183E-03
   1.873111566431451E-03   1.896672366873953E-03   1.920529524074253E-03
   1.944686765679229E-03   1.969147866221402E-03   1.993916647708601E-03
   2.018996980221031E-03   2.044392782515852E-03   2.070108022639365E-03
   2.096146718546867E-03   2.122512938730340E-03   2.149210802854002E-03
   2.176244482397855E-03   2.203618201309331E-03   2.231336236663117E-03
   2.259402919329288E-03   2.287822634649822E-03   2.316599823123635E-03
   2.345738981100234E-03   2.375244661482052E-03   2.405121474435661E-03
   2.435374088111887E-03   2.466007229374991E-03   2.497025684541031E-03
   2.528434300125464E-03   2.560237983600178E-03   2.592441704160035E-03
   2.625050493499038E-03   2.658069446596265E-03   2.691503722511657E-03
   2.725358545191841E-03   2.759639204286058E-03   2.794351055972344E-03
   2.829499523794112E-03   2.865090099507229E-03   2.901128343937732E-03
   2.937619887850348E-03   2.974570432827904E-03   3.011985752161802E-03
   3.049871691753680E-03   3.088234171028382E-03   3.127079183858434E-03
   3.166412799500094E-03   3.206241163541219E-03   3.246570498860975E-03
   3.287407106601641E-03   3.328757367152624E-03   3.370627741146823E-03
   3.413024770469517E-03   3.455955079279908E-03   3.499425375045516E-03
   3.543442449589561E-03   3.588013180151487E-03   3.633144530460839E-03
   3.678843551824575E-03   3.725117384228076E-03   3.771973257449967E-03
   3.819418492190934E-03   3.867460501216731E-03   3.916106790515524E-03
   3.965364960469762E-03   4.015242707042760E-03   4.065747822980212E-03
   4.116888199026757E-03   4.168671825157815E-03   4.221106791826889E-03
   4.274201291228542E-03   4.327963618577212E-03   4.382402173402074E-03
   4.437525460858149E-03   4.493342093053893E-03   4.549860790395399E-03
   4.607090382947506E-03   4.665039811811982E-03   4.723718130522974E-03
   4.783134506459993E-03   4.843298222278595E-03   4.904218677359021E-03
   4.965905389273028E-03   5.028367995269085E-03   5.091616253776198E-03
   5.155660045926630E-03   5.220509377097662E-03   5.286174378472716E-03
   5.352665308622049E-03   5.419992555103248E-03   5.488166636081805E-03
   5.557198201971987E-03   5.627098037098279E-03   5.697877061377663E-03
   5.769546332022932E-03   5.842117045267403E-03   5.915600538111170E-03
   5.990008290089303E-03   6.065351925062143E-03   6.141643213028047E-03
   6.218894071958798E-03   6.297116569658032E-03   6.376322925642926E-03
   6.456525513049437E-03   6.537736860561352E-03   6.619969654363547E-03
   6.703236740119636E-03   6.787551124974393E-03   6.872925979581214E-03
   6.959374640154920E-03   7.046910610550294E-03   7.135547564366507E-03
   7.225299347077948E-03   7.316179978191682E-03   7.408203653431807E-03
   7.501384746951180E-03   7.595737813570744E-03   7.691277591046815E-03
   7.788019002366752E-03   7.885977158073248E-03   7.985167358617597E-03
   8.085605096742457E-03   8.187306059894248E-03   8.290286132665735E-03
   8.394561399268953E-03   8.500148146039169E-03   8.607062863969891E-03
   8.715322251279623E-03   8.824943216010558E-03   8.935942878659590E-03
   9.048338574842210E-03   9.162147857989564E-03   9.277388502079046E-03
   9.394078504398995E-03   9.512236088347675E-03   9.631879706267147E-03
   9.753028042312425E-03   9.875700015356219E-03   9.999914781929967E-03
   1.012569173920120E-02   1.025305052798808E-02   1.038201103581129E-02
   1.051259339998391E-02   1.064481801073953E-02   1.077870551439926E-02
   1.091427681657804E-02   1.105155308543064E-02   1.119055575493792E-02
   1.133130652823398E-02   1.147382738097417E-02   1.161814056474518E-02
   1.176426861051703E-02   1.191223433213804E-02   1.206206082987281E-02
   1.221377149398401E-02   1.236739000835841E-02   1.252294035417775E-02
   1.268044681363488E-02   1.283993397369571E-02   1.300142672990761E-02
   1.316495029025477E-02   1.333053017906097E-02   1.349819224094048E-02
   1.366796264479758E-02   1.383986788787517E-02   1.401393479985329E-02
   1.419019054699784E-02   1.436866263636042E-02   1.454937892002950E-02
   1.473236759943383E-02   1.491765722969854E-02   1.510527672405462E-02
   1.529525535830227E-02   1.548762277532904E-02   1.568240898968278E-02
   1.587964439220088E-02   1.607935975469562E-02   1.628158623469681E-02
   1.648635538025227E-02   1.669369913478651E-02   1.690364984201867E-02
   1.711624025094010E-02   1.733150352085238E-02   1.754947322646660E-02
   1.777018336306410E-02   1.799366835171985E-02   1.821996304458908E-02
   1.844910273025758E-02   1.868112313915654E-02   1.891606044904281E-02
   1.915395129054507E-02   1.939483275277659E-02   1.963874238901550E-02
   1.988571822245327E-02   2.013579875201174E-02   2.038902295823011E-02
   2.064543030922206E-02   2.090506076670403E-02   2.116795479209533E-02
   2.143415335269069E-02   2.170369792790645E-02   2.197663051560051E-02
   2.225299363846734E-02   2.253283035050864E-02   2.281618424358008E-02
   2.310309945401555E-02   2.339362066932927E-02   2.368779313499628E-02
   2.398566266131293E-02   2.428727563033716E-02   2.459267900291006E-02
   2.490192032575927E-02   2.521504773868478E-02   2.553210998182839E-02
   2.585315640302699E-02   2.617823696525106E-02   2.650740225412872E-02
   2.684070348555641E-02   2.717819251339683E-02   2.751992183726469E-02
   2.786594461040173E-02   2.821631464764096E-02   2.857108643346128E-02
   2.893031513013360E-02   2.929405658595828E-02   2.966236734359579E-02
   3.003530464849016E-02   3.041292645738703E-02   3.079529144694637E-02
   3.118245902245072E-02   3.157448932660978E-02   3.197144324846193E-02
   3.237338243237365E-02   3.278036928713721E-02   3.319246699516715E-02
   3.360973952179683E-02   3.403225162467537E-02   3.446006886326510E-02
   3.489325760844129E-02   3.533188505219344E-02   3.577601921742982E-02
   3.622572896788512E-02   3.668108401813194E-02   3.714215494369692E-02
   3.760901319128145E-02   3.808173108908798E-02   3.856038185725201E-02
   3.904503961838033E-02   3.953577940819587E-02   4.003267718628940E-02
   4.053580984697858E-02   4.104525523027459E-02   4.156109213295659E-02
   4.208340031975415E-02   4.261226053463760E-02   4.314775451221715E-02
   4.368996498924996E-02   4.423897571625608E-02   4.479487146924257E-02
   4.535773806153550E-02   4.592766235572098E-02   4.650473227569369E-02
   4.708903681881320E-02   4.768066606816803E-02   4.827971120494656E-02
   4.888626452091458E-02   4.950041943099921E-02   5.012227048597799E-02
   5.075191338527335E-02   5.138944498985057E-02   5.203496333521955E-02
   5.268856764453830E-02   5.335035834181833E-02   5.402043706523012E-02
   5.469890668050661E-02   5.538587129444549E-02   5.608143626850671E-02
   5.678570823250464E-02   5.749879509839353E-02   5.822080607414283E-02
   5.895185167770268E-02   5.969204375105554E-02   6.044149547435250E-02
   6.120032138013163E-02   6.196863736761598E-02   6.274656071708853E-02
   6.353421010434070E-02   6.433170561519187E-02   6.513916876007625E-02
   6.595672248869337E-02   6.678449120471909E-02   6.762260078057300E-02
   6.847117857223754E-02   6.933035343412562E-02   7.020025573399001E-02
   7.108101736787238E-02   7.197277177508463E-02   7.287565395321788E-02
   7.378980047317378E-02   7.471534949421103E-02   7.565244077900213E-02
   7.660121570869272E-02   7.756181729795709E-02   7.853439021004231E-02
   7.951908077179300E-02   8.051603698864904E-02   8.152540855960817E-02
   8.254734689214346E-02   8.358200511706745E-02   8.462953810333208E-02
   8.569010247275627E-02   8.676385661466754E-02   8.785096070044933E-02
   8.895157669798046E-02   9.006586838595509E-02   9.119400136807099E-02
   9.233614308707162E-02   9.349246283862926E-02   9.466313178505407E-02
   9.584832296881290E-02   9.704821132584486E-02   9.826297369865336E-02
   9.949278884915964E-02   1.007378374713002E-01   1.019983022033467E-01
   1.032743676399323E-01   1.045662203437606E-01   1.058740488569776E-01
   1.071980437121846E-01   1.085383974430681E-01   1.098953045946233E-01
   1.112689617329456E-01   1.126595674545625E-01   1.140673223952840E-01
   1.154924292385344E-01   1.169350927231457E-01   1.183955196505734E-01
   1.198739188915081E-01   1.213705013918488E-01   1.228854801780001E-01
   1.244190703614627E-01   1.259714891426746E-01   1.275429558140663E-01
   1.291336917622926E-01   1.307439204695919E-01   1.323738675142372E-01
   1.340237605700282E-01   1.356938294047776E-01   1.373843058777470E-01
   1.390954239359760E-01   1.408274196094568E-01   1.425805310050956E-01
   1.443549982994041E-01   1.461510637298678E-01   1.479689715849200E-01
   1.498089681924687E-01   1.516713019069015E-01   1.535562230945040E-01
   1.554639841172245E-01   1.573948393147012E-01   1.593490449844884E-01
   1.613268593603923E-01   1.633285425888390E-01   1.653543567031902E-01
   1.674045655959163E-01   1.694794349885396E-01   1.715792323992470E-01
   1.737042271080798E-01   1.758546901195991E-01   1.780308941229174E-01
   1.802331134489929E-01   1.824616240250713E-01   1.847167033261597E-01
   1.869986303234134E-01   1.893076854293067E-01   1.916441504394684E-01
   1.940083084710370E-01   1.964004438974062E-01   1.988208422792187E-01
   2.012697902914543E-01   2.037475756464689E-01   2.062544870128220E-01
   2.087908139297331E-01   2.113568467169994E-01   2.139528763802005E-01
   2.165791945110156E-01   2.192360931824653E-01   2.219238648388886E-01
   2.246428021804650E-01   2.273931980420716E-01   2.301753452662753E-01
   2.329895365702383E-01   2.358360644063209E-01   2.387152208161567E-01
   2.416272972779578E-01   2.445725845468184E-01   2.475513724877607E-01
   2.505639499012720E-01   2.536106043410762E-01   2.566916219238578E-01
   2.598072871306732E-01   2.629578825997569E-01   2.661436889104350E-01
   2.693649843578482E-01   2.726220447181675E-01   2.759151430040002E-01
   2.792445492096550E-01   2.826105300459322E-01   2.860133486641152E-01
   2.894532643687974E-01   2.929305323192055E-01   2.964454032186475E-01
   2.999981229917172E-01   3.035889324488855E-01   3.072180669380788E-01
   3.108857559828635E-01   3.145922229068314E-01   3.183376844437776E-01
   3.221223503332633E-01   3.259464229011292E-01   3.298100966245526E-01
   3.337135576811920E-01   3.376569834819971E-01   3.416405421872368E-01
   3.456643922052864E-01   3.497286816737377E-01   3.538335479223609E-01
   3.579791169174627E-01   3.621655026871864E-01   3.663928067272737E-01
   3.706611173868482E-01   3.749705092337317E-01   3.793210423988472E-01
   3.837127618992491E-01   3.881456969393109E-01   3.926198601896368E-01
   3.971352470432385E-01   4.016918348485456E-01   4.062895821188321E-01
   4.109284277176191E-01   4.156082900196849E-01   4.203290660472651E-01
   4.250906305810829E-01   4.298928352458750E-01   4.347355075700620E-01
   4.396184500192811E-01   4.445414390034902E-01   4.495042238574196E-01
   4.545065257941417E-01   4.595480368316007E-01   4.646284186919737E-01
   4.697473016737682E-01   4.749042834966265E-01   4.800989281188602E-01
   4.853307645277754E-01   4.905992855029502E-01   4.959039463526480E-01
   5.012441636236692E-01   5.066193137849843E-01   5.120287318855971E-01
   5.174717101871835E-01   5.229474967721222E-01   5.284552941276713E-01
   5.339942577071266E-01   5.395634944689288E-01   5.451620613948329E-01
   5.507889639883334E-01   5.564431547547511E-01   5.621235316644776E-01
   5.678289366010572E-01   5.735581537959810E-01   5.793099082521866E-01
   5.850828641585085E-01   5.908756232974632E-01   5.966867234490052E-01
   6.025146367930894E-01   6.083577683140849E-01   6.142144542103708E-01
   6.200829603126338E-01   6.259614805146830E-01   6.318481352208709E-01
   6.377409698144484E-01   6.436379531515202E-01   6.495369760855174E-01
   6.554358500274500E-01   6.613323055474951E-01   6.672239910237996E-01
   6.731084713447343E-01   6.789832266711240E-01   6.848456512653742E-01
   6.906930523947334E-01   6.965226493162662E-01   7.023315723515149E-01
   7.081168620591130E-01   7.138754685140074E-01   7.196042507022845E-01
   7.252999760408944E-01   7.309593200319515E-01   7.365788660615429E-01
   7.421551053533063E-01   7.476844370873055E-01   7.531631686949614E-01
   7.585875163410549E-01   7.639536056039421E-01   7.692574723653216E-01
   7.744950639209515E-01   7.796622403237696E-01   7.847547759708474E-01
   7.897683614455235E-01   7.946986056258916E-01   7.995410380705834E-01
   8.042911116924126E-01   8.089442057300469E-01   8.134956290272448E-01
   8.179406236285521E-01   8.222743686995102E-01   8.264919847784254E-01
   8.305885383656286E-01   8.345590468548074E-01   8.383984838094815E-01
   8.421017845859780E-01   8.456638523022831E-01   8.490795641500086E-01
   8.523437780442311E-01   8.554513396032289E-01   8.583970894472605E-01
   8.611758708021130E-01   8.637825373896000E-01   8.662119615832394E-01
   8.684590428030606E-01   8.705187161188676E-01   8.723859610262601E-01
   8.740558103543781E-01   8.755233592585487E-01   8.767837742449027E-01
   8.778323021674925E-01   8.786642791315573E-01   8.792751392293245E-01
   8.796604230270968E-01   8.798157857144234E-01   8.797370048179153E-01
   8.794199873737054E-01   8.788607764438013E-01   8.780555568526550E-01
   8.770006600112387E-01   8.756925676868386E-01   8.741279145677942E-01
   8.723034894635596E-01   8.702162349719580E-01   8.678632454373703E-01
   8.652417630160869E-01   8.623491716583558E-01   8.591829888108570E-01
   8.557408546387935E-01   8.520205185636929E-01   8.480198229115731E-01
   8.437366834668583E-01   8.391690667303159E-01   8.343149636850692E-01
   8.291723598834639E-01   8.237392016798872E-01   8.180133584508658E-01
   8.119925806643545E-01   8.056744536856364E-01   7.990563472381391E-01
   7.921353604742166E-01   7.849082626541777E-01   7.773714294819595E-01
   7.695207752035196E-01   7.613516806396406E-01   7.528589173989824E-01
   7.440365686003451E-01   7.348817880084659E-01   7.254066144621186E-01
   7.156270445628257E-01   7.055592503803202E-01   6.952195474245626E-01
   6.846243627502354E-01   6.737902032843242E-01   6.627336244643877E-01
   6.514711992716952E-01   6.400194877397325E-01   6.283950061668422E-01
   6.166141900938444E-01   6.046933838018380E-01   5.926488028976564E-01
   5.804965072570798E-01   5.682523748364007E-01   5.559320764015815E-01
   5.435510512196622E-01   5.311244837524342E-01   5.186672813877891E-01
   5.061940532396995E-01   4.937190900433930E-01   4.812563451680734E-01
   4.688194167654786E-01   4.564215310686288E-01   4.440755268514427E-01
   4.317938410563096E-01   4.195884955933987E-01   4.074710853123110E-01
   3.954527671437108E-01   3.835442504058254E-01   3.717557882680841E-01
   3.600971703617930E-01   3.485777165254829E-01   3.372062716705078E-01
   3.259912017505589E-01   3.149403908169815E-01   3.040612391401442E-01
   2.933606623755913E-01   2.828450917522958E-01   2.725204752590272E-01
   2.623922798036024E-01   2.524654943186589E-01   2.427446337864859E-01
   2.332337441544211E-01   2.239364081113384E-01   2.148557516947996E-01
   2.059944516975303E-01   1.973547438409919E-01   1.889384316829495E-01
   1.807468962250987E-01   1.727811061859732E-01   1.650416289035509E-01
   1.575286418311818E-01   1.502419445896838E-01   1.431809715377111E-01
   1.363448048217712E-01   1.297321878665895E-01   1.233415392658699E-01
   1.171709670329022E-01   1.112182831699321E-01   1.054810185147244E-01
   9.995643782235436E-02   9.464155503993808E-02   8.953314873178388E-02
   8.462777761232264E-02   7.992179614415219E-02   7.541137015863746E-02
   7.109249245673276E-02   6.696099834805311E-02   6.301258108672789E-02
   5.924280716321083E-02   5.564713141202240E-02   5.222091189635001E-02
   4.895942453153385E-02   4.585787741072898E-02   4.291142479744671E-02
   4.011518075124319E-02   3.746423235453710E-02   3.495365251039011E-02
   3.257851228307423E-02   3.033389275536326E-02   2.821489637871547E-02
   2.621665779485034E-02   2.433435410964657E-02   2.256321460279594E-02
   2.089852985921315E-02   1.933566031082087E-02   1.787004417997599E-02
   1.649720481846814E-02   1.521275743868370E-02   1.401241523617214E-02
   1.289199490545987E-02   1.184742155351204E-02   1.087473301772878E-02
   9.970083597763663E-03   9.129747212753031E-03   8.350119997730970E-03
   7.627722355063706E-03   6.959200478655334E-03   6.341327370445393E-03
   5.771003370326414E-03   5.245256222050170E-03   4.761240698957215E-03
   4.316237814451202E-03   3.907653643044733E-03   3.533017778524553E-03
   3.189981456322129E-03   2.876315367531658E-03   2.589907192195220E-03
   2.328758879478724E-03   2.090983702198297E-03   1.874803112832795E-03
   1.678543427679233E-03   1.500632365196055E-03   1.339595463821354E-03
   1.194052403686210E-03   1.062713255663369E-03   9.443746801155634E-04
   8.379160965486595E-04   7.422958441451367E-04   6.565473518661177E-04
   5.797753354783187E-04   5.111520374984965E-04   4.499135246645622E-04
   3.953560561515347E-04   3.468325343631368E-04   3.037490487569039E-04
   2.655615218120993E-04   2.317724649346792E-04   2.019278508204222E-04
   1.756141075734538E-04   1.524552387093817E-04   1.321100720655992E-04
   1.142696396006856E-04   9.865468909392521E-05   8.501332785755684E-05
   7.311879775035333E-05   6.276738003257285E-05   5.377642792945215E-05
   4.598252417274755E-05   3.923976026615987E-05   3.341813376900159E-05
   2.840205951079359E-05   2.408899033474144E-05   2.038814271695443E-05
   1.721932241717945E-05   1.451184518180882E-05   1.220354743683831E-05
   1.023988187300870E-05   8.573092833179531E-06   7.161466458640137E-06
   5.968650632170048E-06   4.963039866890088E-06   4.117220427083061E-06
   3.407471126127950E-06   2.813315423555026E-06   2.317120634960197E-06
   1.903740269314923E-06   1.560195719042248E-06   1.275399019794899E-06
   1.039944341568938E-06   8.457834844201288E-07   6.860872789572506E-07
   5.550810418436258E-07   4.478946801451510E-07   3.604319940898710E-07
   2.892570430541119E-07   2.314956305064311E-07   1.847501437967816E-07
   1.470261538328603E-07   1.166693377429821E-07   9.231143460796250E-08
   7.282408041072300E-08   5.727949372824462E-08   4.491709870866737E-08
   3.511527692648916E-08   2.736753523849091E-08   2.126246326186601E-08
   1.646693208424418E-08   1.271205583295516E-08   9.781500328369354E-09
   7.501778775743192E-09   5.734223858435912E-09   4.368369217649521E-09
   3.316511658009528E-09   2.509259001234575E-09   1.891897794340846E-09
   1.421440510066837E-09   1.064233873026507E-09   7.940288940740928E-10
   5.904294570861155E-10   4.376502081599857E-10   3.235263515737433E-10
   2.387280396026743E-10   1.761406128386620E-10   1.294557089551562E-10
   9.476920205264877E-11   6.909966842305394E-11   5.017941169755948E-11
   3.629057875995800E-11   2.613716844210389E-11   1.874548998396387E-11
   1.338707491679270E-11   9.519233013881389E-12   6.739412297619142E-12
   4.750310961753471E-12   3.333326392028083E-12   2.328439542401803E-12
   1.619043976391574E-12   1.120556597050571E-12   7.719070787549265E-13
   5.292082541996713E-13   3.610709213334047E-13   2.451525249749765E-13
   1.656271313905142E-13   1.113398950962314E-13   7.446753516870476E-14
   4.955098311187076E-14   3.280036143021467E-14   2.159820307006065E-14
   1.414622203676479E-14   9.215481685000045E-15   5.970639142546307E-15
   3.846971276162945E-15   2.464802619433359E-15   1.570289765419869E-15
   9.946742721496936E-16   6.264032353117421E-16   3.921636340881090E-16
   2.440555340861016E-16   1.509681760312608E-16   9.281636239703935E-17
   5.671169573013233E-17   3.443466179554797E-17   2.077589918778040E-17
   1.245460458964518E-17   7.417729947858428E-18   4.388816891293097E-18
   2.579426973184038E-18   1.505781139109620E-18   8.730243561787789E-19
   5.026658065241337E-19   2.873974554395049E-19   1.631543748429524E-19
   9.195766057821165E-20   5.145305408374463E-20   2.857778918225147E-20
   1.575433209397368E-20   8.619546685954655E-21   4.679943070587961E-21
   2.521311812151796E-21   1.347721000546847E-21   7.146904074373030E-22
   3.759559493163353E-22   1.961611533092537E-22   1.015082913575990E-22
   5.209036086024898E-23   2.650543001659111E-23   1.337173345097840E-23
   6.687581400740371E-24   3.315366328344200E-24   1.629022167605653E-24
   7.932441036016703E-25   3.827558537767924E-25   1.829877786928545E-25
   8.666766204143499E-26   4.066077864899541E-26   1.889409670121619E-26
   8.694727526163367E-27   3.961978622061224E-27   1.787478502715916E-27
   7.983395399744704E-28   3.529372059675720E-28   1.544238674800971E-28
   6.686241651011610E-29   2.864462541570041E-29   1.214058781697266E-29
   5.089945066013602E-30   2.110589996351234E-30   8.654697531813250E-31
   3.509103965102016E-31   1.406614902066815E-31   5.573479029835086E-32
   2.182661872930922E-32   8.446785112974930E-33   3.229806292392948E-33
   1.220045119362831E-33   4.552219608177786E-34   1.677455824999267E-34
   6.103674735876101E-35   2.192678948556107E-35   0.000000000000000E+00
   0.000000000000000E+00   0.000000000000000E+00   0.000000000000000E+00
   0.000000000000000E+00   0.000000000000000E+00   0.000000000000000E+00
   0.000000000000000E+00   0.000000000000000E+00   0.000000000000000E+00
   0.000000000000000E+00   0.000000000000000E+00   0.000000000000000E+00
   0.000000000000000E+00   0.000000000000000E+00   0.000000000000000E+00
   0.000000000000000E+00   0.000000000000000E+00   0.000000000000000E+00
   0.000000000000000E+00   0.000000000000000E+00   0.000000000000000E+00
   0.000000000000000E+00   0.000000000000000E+00
    </PP_CHI.1>
    <PP_CHI.2 size="1211" index="2" label="4P" l="1" occupation="4.0000000000000000" n="2" cutoff_radius="1.5000000000000000" ultrasoft_cutoff_radius="1.8999999999999999">
   5.735705789862289E-10   5.880905873173621E-10   6.029781714091559E-10
   6.182426364863817E-10   6.338935233365966E-10   6.499406142735443E-10
   6.663939392514179E-10   6.832637821339089E-10   7.005606871219586E-10
   7.182954653442243E-10   7.364792016143873E-10   7.551232613595201E-10
   7.742392977238524E-10   7.938392588523630E-10   8.139353953587621E-10
   8.345402679825197E-10   8.556667554397369E-10   8.773280624727661E-10
   8.995377281036005E-10   9.223096340962075E-10   9.456580136330776E-10
   9.695974602114335E-10   9.941429367646347E-10   1.019309785014501E-09
   1.045113735060391E-09   1.071570915211016E-09   1.098697862065170E-09
   1.126511530847631E-09   1.155029306006738E-09   1.184269012080232E-09
   1.214248924836172E-09   1.244987782695882E-09   1.276504798446084E-09
   1.308819671247504E-09   1.341952598947495E-09   1.375924290704349E-09
   1.410755979931186E-09   1.446469437567541E-09   1.483086985686899E-09
   1.520631511448727E-09   1.559126481403685E-09   1.598595956160986E-09
   1.639064605427065E-09   1.680557723424936E-09   1.723101244703921E-09
   1.766721760349573E-09   1.811446534603975E-09   1.857303521906782E-09
   1.904321384367650E-09   1.952529509680990E-09   2.001958029494230E-09
   2.052637838241079E-09   2.104600612451552E-09   2.157878830550828E-09
   2.212505793159327E-09   2.268515643906679E-09   2.325943390772611E-09
   2.384824927968055E-09   2.445197058370213E-09   2.507097516525553E-09
   2.570564992235118E-09   2.635639154736920E-09   2.702360677500497E-09
   2.770771263649155E-09   2.840913672025787E-09   2.912831743918526E-09
   2.986570430462983E-09   3.062175820738170E-09   3.139695170573674E-09
   3.219176932086088E-09   3.300670783963149E-09   3.384227662514550E-09
   3.469899793508775E-09   3.557740724815920E-09   3.647805359876827E-09
   3.740149992019556E-09   3.834832339644512E-09   3.931911582300339E-09
   4.031448397673065E-09   4.133504999511622E-09   4.238145176513458E-09
   4.345434332194562E-09   4.455439525768776E-09   4.568229514061979E-09
   4.683874794487347E-09   4.802447649108534E-09   4.924022189818302E-09
   5.048674404660868E-09   5.176482205326900E-09   5.307525475850869E-09
   5.441886122541131E-09   5.579648125174084E-09   5.720897589484207E-09
   5.865722800982984E-09   6.014214280140194E-09   6.166464838962144E-09
   6.322569639002206E-09   6.482626250839876E-09   6.646734715065545E-09
   6.814997604809141E-09   6.987520089851632E-09   7.164410002359597E-09
   7.345777904283813E-09   7.531737156464056E-09   7.722403989483336E-09
   7.917897576315765E-09   8.118340106813534E-09   8.323856864079569E-09
   8.534576302773501E-09   8.750630129400053E-09   8.972153384629813E-09
   9.199284527704088E-09   9.432165522976430E-09   9.670941928644903E-09
   9.915762987730767E-09   1.016678172136017E-08   1.042415502440731E-08
   1.068804376355886E-08   1.095861287786083E-08   1.123603148181085E-08
   1.152047297106020E-08   1.181211513079175E-08   1.211114024684143E-08
   1.241773521963280E-08   1.273209168099592E-08   1.305440611394341E-08
   1.338487997547873E-08   1.372371982251332E-08   1.407113744097141E-08
   1.442734997816306E-08   1.479258007850828E-08   1.516705602269700E-08
   1.555101187037192E-08   1.594468760642336E-08   1.634832929098759E-08
   1.676218921324244E-08   1.718652604909613E-08   1.762160502286813E-08
   1.806769807306300E-08   1.852508402234068E-08   1.899404875178977E-08
   1.947488537961241E-08   1.996789444433266E-08   2.047338409264283E-08
   2.099167027200509E-08   2.152307692812890E-08   2.206793620744757E-08
   2.262658866472051E-08   2.319938347589095E-08   2.378667865633230E-08
   2.438884128461921E-08   2.500624773196363E-08   2.563928389745894E-08
   2.628834544927937E-08   2.695383807198550E-08   2.763617772009008E-08
   2.833579087804307E-08   2.905311482679823E-08   2.978859791712777E-08
   3.054269984985628E-08   3.131589196318832E-08   3.210865752731012E-08
   3.292149204644909E-08   3.375490356857984E-08   3.460941300297071E-08
   3.548555444576870E-08   3.638387551382686E-08   3.730493768698243E-08
   3.824931665899990E-08   3.921760269739820E-08   4.021040101238670E-08
   4.122833213514137E-08   4.227203230565650E-08   4.334215387041526E-08
   4.443936569012724E-08   4.556435355778797E-08   4.671782062732151E-08
   4.790048785307429E-08   4.911309444043465E-08   5.035639830786020E-08
   5.163117656060084E-08   5.293822597641482E-08   5.427836350358022E-08
   5.565242677151388E-08   5.706127461431661E-08   5.850578760757208E-08
   5.998686861873482E-08   6.150544337145110E-08   6.306246102416599E-08
   6.465889476337794E-08   6.629574241191107E-08   6.797402705258661E-08
   6.969479766768240E-08   7.145912979458002E-08   7.326812619801051E-08
   7.512291755931681E-08   7.702466318316633E-08   7.897455172215292E-08
   8.097380191974276E-08   8.302366337202800E-08   8.512541730876357E-08
   8.728037739417707E-08   8.948989054805053E-08   9.175533778758780E-08
   9.407813509059461E-08   9.645973428050925E-08   9.890162393383820E-08
   1.014053303105640E-07   1.039724183081058E-07   1.066044924394299E-07
   1.093031978359209E-07   1.120702212756413E-07   1.149072922376199E-07
   1.178161839828321E-07   1.207987146625432E-07   1.238567484547098E-07
   1.269921967291512E-07   1.302070192422140E-07   1.335032253616820E-07
   1.368828753226944E-07   1.403480815154547E-07   1.439010098055246E-07
   1.475438808875937E-07   1.512789716734679E-07   1.551086167152094E-07
   1.590352096643013E-07   1.630612047677583E-07   1.671891184021045E-07
   1.714215306461881E-07   1.757610868938119E-07   1.802104995071831E-07
   1.847725495122282E-07   1.894500883368168E-07   1.942460395929928E-07
   1.991634009043244E-07   2.042052457795067E-07   2.093747255334044E-07
   2.146750712567167E-07   2.201095958355093E-07   2.256816960218702E-07
   2.313948545569814E-07   2.372526423479421E-07   2.432587206996913E-07
   2.494168436034360E-07   2.557308600830106E-07   2.622047166006310E-07
   2.688424595235566E-07   2.756482376531876E-07   2.826263048181943E-07
   2.897810225332864E-07   2.971168627252916E-07   3.046384105282433E-07
   3.123503671492259E-07   3.202575528067700E-07   3.283649097436330E-07
   3.366775053158461E-07   3.452005351599630E-07   3.539393264404857E-07
   3.628993411794979E-07   3.720861796705922E-07   3.815055839792152E-07
   3.911634415316281E-07   4.010657887947169E-07   4.112188150489626E-07
   4.216288662569184E-07   4.323024490296209E-07   4.432462346934084E-07
   4.544670634596912E-07   4.659719487002792E-07   4.777680813309404E-07
   4.898628343059236E-07   5.022637672262688E-07   5.149786310647645E-07
   5.280153730105276E-07   5.413821414362178E-07   5.550872909909940E-07
   5.691393878224071E-07   5.835472149304723E-07   5.983197776572890E-07
   6.134663093156256E-07   6.289962769599887E-07   6.449193873037908E-07
   6.612455927863050E-07   6.779850977932067E-07   6.951483650345897E-07
   7.127461220844289E-07   7.307893680856056E-07   7.492893806246530E-07
   7.682577227805422E-07   7.877062503519099E-07   8.076471192672294E-07
   8.280927931825817E-07   8.490560512717532E-07   8.705499962135395E-07
   8.925880623812491E-07   9.151840242395156E-07   9.383520049536804E-07
   9.621064852171115E-07   9.864623123019864E-07   1.011434709339198E-06
   1.037039284833162E-06   1.063292042417506E-06   1.090209390857711E-06
   1.117808154306966E-06   1.146105582821652E-06   1.175119363143005E-06
   1.204867629751737E-06   1.235368976202473E-06   1.266642466745135E-06
   1.298707648240505E-06   1.331584562377423E-06   1.365293758199275E-06
   1.399856304947547E-06   1.435293805230548E-06   1.471628408525463E-06
   1.508882825022213E-06   1.547080339817766E-06   1.586244827469760E-06
   1.626400766918545E-06   1.667573256786984E-06   1.709788031067529E-06
   1.753071475206430E-06   1.797450642595074E-06   1.842953271478830E-06
   1.889607802293894E-06   1.937443395443040E-06   1.986489949521295E-06
   2.036778120003029E-06   2.088339338402081E-06   2.141205831916897E-06
   2.195410643572992E-06   2.250987652875253E-06   2.307971596983086E-06
   2.366398092421563E-06   2.426303657342168E-06   2.487725734347074E-06
   2.550702713891142E-06   2.615273958276376E-06   2.681479826253726E-06
   2.749361698247680E-06   2.818962002219392E-06   2.890324240184462E-06
   2.963493015402039E-06   3.038514060252139E-06   3.115434264818651E-06
   3.194301706195916E-06   3.275165678537105E-06   3.358076723863258E-06
   3.443086663652218E-06   3.530248631227168E-06   3.619617104965059E-06
   3.711247942345640E-06   3.805198414862374E-06   3.901527243817098E-06
   4.000294637020725E-06   4.101562326422996E-06   4.205393606694735E-06
   4.311853374786743E-06   4.421008170490050E-06   4.532926218022885E-06
   4.647677468670361E-06   4.765333644503390E-06   4.885968283204378E-06
   5.009656784027503E-06   5.136476454922379E-06   5.266506560850634E-06
   5.399828373325357E-06   5.536525221204639E-06   5.676682542770790E-06
   5.820387939127759E-06   5.967731228950298E-06   6.118804504618760E-06
   6.273702189774985E-06   6.432521098334937E-06   6.595360494995078E-06
   6.762322157270398E-06   6.933510439102500E-06   7.109032336078023E-06
   7.288997552297633E-06   7.473518568937631E-06   7.662710714547124E-06
   7.856692237124245E-06   8.055584378016927E-06   8.259511447694158E-06
   8.468600903435057E-06   8.682983428984398E-06   8.902793016224318E-06
   9.128167048913035E-06   9.359246388543306E-06   9.596175462373884E-06
   9.839102353689098E-06   1.008817889434303E-05   1.034356075964590E-05
   1.060540756565219E-05   1.087388296891092E-05   1.114915476874089E-05
   1.143139501209427E-05   1.172078010107436E-05   1.201749090317451E-05
   1.232171286430722E-05   1.263363612469385E-05   1.295345563768742E-05
   1.328137129160274E-05   1.361758803462980E-05   1.396231600290873E-05
   1.431577065184592E-05   1.467817289075391E-05   1.504974922089827E-05
   1.543073187703849E-05   1.582135897255104E-05   1.622187464822481E-05
   1.663252922482263E-05   1.705357935950318E-05   1.748528820620198E-05
   1.792792558007077E-05   1.838176812607846E-05   1.884709949187890E-05
   1.932421050505283E-05   1.981339935483556E-05   2.031497177844323E-05
   2.082924125211417E-05   2.135652918698461E-05   2.189716512992096E-05
   2.245148696943421E-05   2.301984114680491E-05   2.360258287255033E-05
   2.420007634836946E-05   2.481269499470354E-05   2.544082168405501E-05
   2.608484898020997E-05   2.674517938351370E-05   2.742222558235256E-05
   2.811641071099818E-05   2.882816861397629E-05   2.955794411712415E-05
   3.030619330550608E-05   3.107338380836072E-05   3.185999509125692E-05
   3.266651875564195E-05   3.349345884596781E-05   3.434133216458752E-05
   3.521066859461845E-05   3.610201143097292E-05   3.701591771976346E-05
   3.795295860629449E-05   3.891371969185694E-05   3.989880139954886E-05
   4.090881934934940E-05   4.194440474268105E-05   4.300620475669949E-05
   4.409488294855667E-05   4.521111966988966E-05   4.635561249179310E-05
   4.752907664054093E-05   4.873224544432870E-05   4.996587079131468E-05
   5.123072359924578E-05   5.252759429696015E-05   5.385729331806796E-05
   5.522065160711644E-05   5.661852113855590E-05   5.805177544882954E-05
   5.952131018191758E-05   6.102804364867789E-05   6.257291740032930E-05
   6.415689681643638E-05   6.578097170776119E-05   6.744615693435646E-05
   6.915349303928780E-05   7.090404689837719E-05   7.269891238637247E-05
   7.453921105995932E-05   7.642609285803809E-05   7.836073681970454E-05
   8.034435182037847E-05   8.237817732654007E-05   8.446348416954400E-05
   8.660157533898951E-05   8.879378679614419E-05   9.104148830792518E-05
   9.334608430195609E-05   9.570901474323296E-05   9.813175603294228E-05
   1.006158219299918E-04   1.031627644958262E-04   1.057741750631141E-04
   1.084516852289098E-04   1.111969678729051E-04   1.140117382014053E-04
   1.168977548176776E-04   1.198568208193353E-04   1.228907849234414E-04
   1.260015426200271E-04   1.291910373547450E-04   1.324612617413878E-04
   1.358142588050255E-04   1.392521232565352E-04   1.427770027993075E-04
   1.463910994689489E-04   1.500966710068029E-04   1.538960322681450E-04
   1.577915566659243E-04   1.617856776509445E-04   1.658808902294042E-04
   1.700797525187329E-04   1.743848873426883E-04   1.787989838667042E-04
   1.833247992744940E-04   1.879651604869572E-04   1.927229659244438E-04
   1.976011873134733E-04   2.026028715390152E-04   2.077311425434737E-04
   2.129892032736220E-04   2.183803376765043E-04   2.239079127457901E-04
   2.295753806196112E-04   2.353862807313354E-04   2.413442420145881E-04
   2.474529851636463E-04   2.537163249510961E-04   2.601381726035988E-04
   2.667225382376727E-04   2.734735333567806E-04   2.803953734112904E-04
   2.874923804229202E-04   2.947689856752800E-04   3.022297324721037E-04
   3.098792789649862E-04   3.177224010521465E-04   3.257639953503499E-04
   3.340090822413429E-04   3.424628089952385E-04   3.511304529721256E-04
   3.600174249044664E-04   3.691292722618687E-04   3.784716827005407E-04
   3.880504875993739E-04   3.978716656849015E-04   4.079413467474569E-04
   4.182658154504563E-04   4.288515152356022E-04   4.397050523259994E-04
   4.508331998297891E-04   4.622429019468192E-04   4.739412782809426E-04
   4.859356282603546E-04   4.982334356689092E-04   5.108423732911127E-04
   5.237703076734862E-04   5.370253040053071E-04   5.506156311216943E-04
   5.645497666319453E-04   5.788364021764874E-04   5.934844488152151E-04
   6.085030425509811E-04   6.239015499910443E-04   6.396895741504321E-04
   6.558769604001948E-04   6.724738025645188E-04   6.894904491702330E-04
   7.069375098523877E-04   7.248258619199173E-04   7.431666570851788E-04
   7.619713283614902E-04   7.812515971327903E-04   8.010194803995786E-04
   8.212872982055594E-04   8.420676812493109E-04   8.633735786857193E-04
   8.852182661214967E-04   9.076153538099340E-04   9.305787950491451E-04
   9.541228947900109E-04   9.782623184568431E-04   1.003012100988573E-03
   1.028387656103263E-03   1.054404785793615E-03   1.081079690057220E-03
   1.108428976868624E-03   1.136469672398287E-03   1.165219231484723E-03
   1.194695548365866E-03   1.224916967676002E-03   1.255902295714781E-03
   1.287670811993922E-03   1.320242281070188E-03   1.353636964669742E-03
   1.387875634111355E-03   1.422979583036509E-03   1.458970640451883E-03
   1.495871184094518E-03   1.533704154124318E-03   1.572493067152840E-03
   1.612262030618089E-03   1.653035757510203E-03   1.694839581460387E-03
   1.737699472196195E-03   1.781642051378529E-03   1.826694608823710E-03
   1.872885119122210E-03   1.920242258663991E-03   1.968795423077581E-03
   2.018574745094165E-03   2.069611112848441E-03   2.121936188620537E-03
   2.175582428036899E-03   2.230583099734449E-03   2.286972305501734E-03
   2.344785000907875E-03   2.404057016429775E-03   2.464825079089815E-03
   2.527126834613935E-03   2.591000870125044E-03   2.656486737380586E-03
   2.723624976569130E-03   2.792457140676504E-03   2.863025820436441E-03
   2.935374669876819E-03   3.009548432476354E-03   3.085592967943901E-03
   3.163555279635460E-03   3.243483542622307E-03   3.325427132424566E-03
   3.409436654424234E-03   3.495563973974584E-03   3.583862247217721E-03
   3.674385952628738E-03   3.767190923299873E-03   3.862334379981784E-03
   3.959874964897358E-03   4.059872776344752E-03   4.162389404105244E-03
   4.267487965675372E-03   4.375233143336195E-03   4.485691222081653E-03
   4.598930128419484E-03   4.715019470065713E-03   4.834030576548715E-03
   4.956036540741609E-03   5.081112261342199E-03   5.209334486317566E-03
   5.340781857334736E-03   5.475534955193085E-03   5.613676346280923E-03
   5.755290630074251E-03   5.900464487697633E-03   6.049286731565364E-03
   6.201848356127380E-03   6.358242589733834E-03   6.518564947644009E-03
   6.682913286195755E-03   6.851387858159461E-03   7.024091369292888E-03
   7.201129036122679E-03   7.382608644965922E-03   7.568640612220332E-03
   7.759338045937226E-03   7.954816808700386E-03   8.155195581831092E-03
   8.360595930938970E-03   8.571142372839536E-03   8.786962443856877E-03
   9.008186769532498E-03   9.234949135759729E-03   9.467386561361276E-03
   9.705639372130819E-03   9.949851276354851E-03   1.020016944183434E-02
   1.045674457442251E-02   1.071973099809589E-02   1.098928673657556E-02
   1.126557359651154E-02   1.154875725224869E-02   1.183900733218467E-02
   1.213649750673463E-02   1.244140557791425E-02   1.275391357055150E-02
   1.307420782513683E-02   1.340247909232024E-02   1.373892262906308E-02
   1.408373829644761E-02   1.443713065914990E-02   1.479930908657854E-02
   1.517048785567747E-02   1.555088625539254E-02   1.594072869279696E-02
   1.634024480086940E-02   1.674966954791725E-02   1.716924334863070E-02
   1.759921217675643E-02   1.803982767937173E-02   1.849134729273889E-02
   1.895403435971679E-02   1.942815824870083E-02   1.991399447406055E-02
   2.041182481804041E-02   2.092193745408172E-02   2.144462707152279E-02
   2.198019500162925E-02   2.252894934489629E-02   2.309120509956694E-02
   2.366728429129836E-02   2.425751610390593E-02   2.486223701110418E-02
   2.548179090916273E-02   2.611652925038417E-02   2.676681117730129E-02
   2.743300365749049E-02   2.811548161888008E-02   2.881462808543366E-02
   2.953083431306893E-02   3.026449992567184E-02   3.101603305104902E-02
   3.178585045665321E-02   3.257437768490699E-02   3.338204918793217E-02
   3.420930846148735E-02   3.505660817789683E-02   3.592441031774240E-02
   3.681318630007628E-02   3.772341711089642E-02   3.865559342960979E-02
   3.961021575319463E-02   4.058779451775269E-02   4.158885021712352E-02
   4.261391351822121E-02   4.366352537272088E-02   4.473823712471813E-02
   4.583861061394663E-02   4.696521827412803E-02   4.811864322600228E-02
   4.929947936455706E-02   5.050833143995832E-02   5.174581513164749E-02
   5.301255711505354E-02   5.430919512033201E-02   5.563637798251765E-02
   5.699476568244428E-02   5.838502937775668E-02   5.980785142330131E-02
   6.126392538015683E-02   6.275395601251954E-02   6.427865927163408E-02
   6.583876226591036E-02   6.743500321634059E-02   6.906813139628123E-02
   7.073890705462764E-02   7.244810132137010E-02   7.419649609446907E-02
   7.598488390694806E-02   7.781406777306162E-02   7.968486101233567E-02
   8.159808705024678E-02   8.355457919424560E-02   8.555518038378734E-02
   8.760074291298026E-02   8.969212812441089E-02   9.183020607266007E-02
   9.401585515595835E-02   9.624996171439508E-02   9.853341959302982E-02
   1.008671296682049E-01   1.032519993353144E-01   1.056889419562181E-01
   1.081788762644496E-01   1.107227257263170E-01   1.133214178559327E-01
   1.159758834821804E-01   1.186870559655572E-01   1.214558703628127E-01
   1.242832625372361E-01   1.271701682124211E-01   1.301175219673041E-01
   1.331262561702195E-01   1.361972998497165E-01   1.393315774998316E-01
   1.425300078175095E-01   1.457935023698525E-01   1.491229641888605E-01
   1.525192862913508E-01   1.559833501217291E-01   1.595160239153226E-01
   1.631181609800181E-01   1.667905978939693E-01   1.705341526172169E-01
   1.743496225151064E-01   1.782377822914909E-01   1.821993818297906E-01
   1.862351439400882E-01   1.903457620105923E-01   1.945318975619251E-01
   1.987941777028738E-01   2.031331924864545E-01   2.075494921653143E-01
   2.120435843457921E-01   2.166159310401836E-01   2.212669456170814E-01
   2.259969896499929E-01   2.308063696647742E-01   2.356953337868580E-01
   2.406640682896421E-01   2.457126940459093E-01   2.508412628846530E-01
   2.560497538562136E-01   2.613380694092691E-01   2.667060314838186E-01
   2.721533775250202E-01   2.776797564234701E-01   2.832847243882757E-01
   2.889677407601589E-01   2.947281637726555E-01   3.005652462704603E-01
   3.064781313949526E-01   3.124658482479567E-01   3.185273075459346E-01
   3.246612972779136E-01   3.308664783816789E-01   3.371413804540132E-01
   3.434843975120264E-01   3.498937838240065E-01   3.563676498295446E-01
   3.629039581701292E-01   3.695005198528374E-01   3.761549905711719E-01
   3.828648672086129E-01   3.896274845518579E-01   3.964400122422133E-01
   4.032994519950377E-01   4.102026351184740E-01   4.171462203641183E-01
   4.241266921434599E-01   4.311403591451200E-01   4.381833533889744E-01
   4.452516297540854E-01   4.523409660181453E-01   4.594469634465901E-01
   4.665650479698433E-01   4.736904719871317E-01   4.808183168349491E-01
   4.879434959575917E-01   4.950607588160245E-01   5.021646955697904E-01
   5.092497425645807E-01   5.163101886553666E-01   5.233401823917488E-01
   5.303337400881164E-01   5.372847547964289E-01   5.441870061938948E-01
   5.510341713912140E-01   5.578198366596160E-01   5.645375100663493E-01
   5.711806349986409E-01   5.777426045452884E-01   5.842167766929041E-01
   5.905964902804379E-01   5.968750816407438E-01   6.030459018417180E-01
   6.091023344218169E-01   6.150378134954803E-01   6.208458420832773E-01
   6.265200104992423E-01   6.320540146041290E-01   6.374416737080334E-01
   6.426769478792184E-01   6.477539543880674E-01   6.526669829860563E-01
   6.574105096896392E-01   6.619792087082950E-01   6.663679621247862E-01
   6.705718669045643E-01   6.745862387803273E-01   6.784066125277063E-01
   6.820287381194007E-01   6.854485722183931E-01   6.886622644470011E-01
   6.916661378481904E-01   6.944566629397930E-01   6.970304247520305E-01
   6.993840822351862E-01   7.015143194287002E-01   7.034177877966563E-01
   7.050910391592093E-01   7.065304486863248E-01   7.077321274711746E-01
   7.086918242672497E-01   7.094048160575944E-01   7.098657872284199E-01
   7.100686972445953E-01   7.100066368730352E-01   7.096716731736374E-01
   7.090546836779422E-01   7.081451804046294E-01   7.069311246197769E-01
   7.053987335395223E-01   7.035359827014382E-01   7.013443656361510E-01
   6.988291699637895E-01   6.959959688134186E-01   6.928506094948992E-01
   6.893992018565566E-01   6.856481063708991E-01   6.816039219901991E-01
   6.772734738130923E-01   6.726638006023771E-01   6.677821419877394E-01
   6.626359241242289E-01   6.572327505093466E-01   6.515803878491272E-01
   6.456867532017526E-01   6.395599013652946E-01   6.332080123542152E-01
   6.266393789906120E-01   6.198623946339648E-01   6.128855410708531E-01
   6.057173765838807E-01   5.983665242167753E-01   5.908416602504323E-01
   5.831515029025226E-01   5.753048012611918E-01   5.673103244614021E-01
   5.591768511105605E-01   5.509131589683020E-01   5.425280148837262E-01
   5.340301649914400E-01   5.254283251673715E-01   5.167311717427922E-01
   5.079473324748601E-01   4.990853777706867E-01   4.901538121611899E-01
   4.811610660204114E-01   4.721154875254713E-01   4.630253348520256E-01
   4.538987685999212E-01   4.447438444436780E-01   4.355685060025618E-01
   4.263805779251972E-01   4.171877591840327E-01   4.079976165754073E-01
   3.988175784215078E-01   3.896549284711520E-01   3.805167999970234E-01
   3.714101700877683E-01   3.623418541341847E-01   3.533185005095877E-01
   3.443465854453494E-01   3.354324081034833E-01   3.265820858490768E-01
   3.178015497262606E-01   3.090965401422686E-01   3.004726027649959E-01
   2.919350846402337E-01   2.834891305355113E-01   2.751396795181307E-01
   2.668914617755612E-01   2.587489956868833E-01   2.507165851543505E-01
   2.427983172044624E-01   2.349980598681328E-01   2.273194603496136E-01
   2.197659434938121E-01   2.123407105614752E-01   2.050467383214440E-01
   1.978867784687848E-01   1.908633573770742E-01   1.839787761924883E-01
   1.772351112765767E-01   1.706342150037398E-01   1.641777169184523E-01
   1.578670252561896E-01   1.517033288308526E-01   1.456875992902232E-01
   1.398205937396538E-01   1.341028577328003E-01   1.285347286267488E-01
   1.231163392974011E-01   1.178476222094498E-01   1.127283138337383E-01
   1.077579594032446E-01   1.029359179973875E-01   9.826136794283168E-02
   9.373331251747663E-02   8.935058594286623E-02   8.511185964887381E-02
   8.101564879319158E-02   7.706031901691834E-02   7.324409341638870E-02
   6.956505971033876E-02   6.602117758056486E-02   6.261028616340639E-02
   5.933011166868734E-02   5.617827510217907E-02   5.315230006721113E-02
   5.024962062075843E-02   4.746758915917234E-02   4.480348430870576E-02
   4.225451879610103E-02   3.981784727477111E-02   3.749057408250114E-02
   3.526976090712378E-02   3.315243433728191E-02   3.113559327616876E-02
   2.921621619703168E-02   2.739126822022797E-02   2.565770799272341E-02
   2.401249435211805E-02   2.245259275855831E-02   2.097498147924293E-02
   1.957665751160823E-02   1.825464223280504E-02   1.700598676449505E-02
   1.582777704355883E-02   1.471713859084277E-02   1.367124097161707E-02
   1.268730194295966E-02   1.176259128480949E-02   1.089443431293560E-02
   1.008021507353886E-02   9.317379220630598E-03   8.603436578708289E-03
   7.935963394567076E-03   7.312604283337952E-03   6.731073875024896E-03
   6.189158168917538E-03   5.684715604278463E-03   5.215677856642366E-03
   4.780050369913249E-03   4.375912635205224E-03   4.001418228039600E-03
   3.654794616085767E-03   3.334342750115911E-03   3.038436451234410E-03
   2.765521607743538E-03   2.514115195219788E-03   2.282804133502207E-03
   2.070243994339088E-03   1.875157573405310E-03   1.696333340294049E-03
   1.532623779907472E-03   1.382943638426135E-03   1.246268086731176E-03
   1.121630813791781E-03   1.008122062118248E-03   9.048866169234320E-04
   8.111217601376227E-04   7.260751998894215E-04   6.490429855028811E-04
   5.793674174742354E-04   5.164349612847992E-04   4.596741732846149E-04
   4.085536462470815E-04   3.625799815473763E-04   3.212957943390561E-04
   2.842777573202368E-04   2.511346881964503E-04   2.215065999256433E-04
   1.950701235250423E-04   1.715190159902809E-04   1.505714078686970E-04
   1.319692177769549E-04   1.154765340035541E-04   1.008780695123542E-04
   8.797769020932055E-05   7.659701603067018E-05   6.657409412625463E-05
   5.776214314818570E-05   5.002836741281081E-05   4.325283948194309E-05
   3.732744951191276E-05   3.215491954158007E-05   2.764788073582131E-05
   2.372801146801204E-05   2.032523401332320E-05   1.737696753364958E-05
   1.482743496399049E-05   1.262702135826048E-05   1.073168121886968E-05
   9.102392317939835E-06   7.704653517590029E-06   6.508024111151744E-06
   5.485702235229028E-06   4.614139942941385E-06   3.872692580198553E-06
   3.243300168175358E-06   2.710198565010748E-06   2.259658256900625E-06
   1.879748711974296E-06   1.560126318470447E-06   1.291844020643293E-06
   1.067180860477173E-06   8.794897296799246E-07   7.230617336452839E-07
   5.930056662827937E-07   4.851411910493065E-07   3.959044184994279E-07
   3.222646636047111E-07   2.616512564559281E-07   2.118893673224278E-07
   1.711438910390597E-07   1.378705160426481E-07   1.107731798791652E-07
   8.876718551448589E-08   7.094732124160442E-08   5.656039139129846E-08
   4.498162549844793E-08   3.569449020421251E-08   2.827348121832833E-08
   2.236952245312677E-08   1.769764641231491E-08   1.395945174023135E-08
   1.097738082926800E-08   8.605773089756605E-09   6.725504999258658E-09
   5.239460922777431E-09   4.068718473301782E-09   3.149346319194574E-09
   2.429725102213236E-09   1.868313590312290E-09   1.431792438738947E-09
   1.093527058616180E-09   8.322991815567346E-10   6.312638480313226E-10
   4.770948202043897E-10   3.592869077128822E-10   2.695884746832924E-10
   2.015415412661031E-10   1.501104716827772E-10   1.113833170285131E-10
   8.233251376871639E-11   6.062388202004933E-11   4.446477049091111E-11
   3.248380183956462E-11   2.363602314326559E-11   1.712839682649432E-11
   1.236150941642436E-11   8.884156785579872E-12   6.358109567364697E-12
   4.530892506342718E-12   3.214845099083926E-12   2.271083899668819E-12
   1.597272929170346E-12   1.118339340853917E-12   7.794566746974586E-13
   5.407659560258017E-13   3.734224773095561E-13   2.566491136572778E-13
   1.755502330895433E-13   1.194976005312054E-13   8.094435512593216E-14
   5.455778129614233E-14   3.658831332634377E-14   2.441271597805452E-14
   1.620503397181498E-14   1.070078651798310E-14   7.028858084543242E-15
   4.592278580406310E-15   2.984123167202804E-15   1.928504490566487E-15
   1.239395478264764E-15   7.920526966135776E-16   5.032946975633605E-16
   3.179680960901566E-16   1.997128754554041E-16   1.246975515592263E-16
   7.739390247190956E-17   4.774410228662040E-17   2.927276057074270E-17
   1.783630832486658E-17   1.079964700678923E-17   6.497450478768591E-18
   3.883920397624725E-18   2.306514795865925E-18   1.360708086540052E-18
   7.973706525598460E-19   4.640934067708511E-19   2.682645385171838E-19
   1.539913180154475E-19   8.777406511615546E-20   4.967462839001222E-20
   2.791016634148604E-20   1.556718408631556E-20   8.618615250414933E-21
   4.735918027744677E-21   2.582670821444898E-21   1.397624678272594E-21
   7.504583552036245E-22   3.997924090710025E-22   2.112862536934329E-22
   1.107625622573704E-22   5.759112301824596E-23   2.969710387480918E-23
   1.518529654097645E-23   7.699050108212483E-24   3.869984168522296E-24
   1.928378598661121E-24   9.524425673356269E-25   4.662301747882077E-25
   2.261664318776849E-25   1.087107740867650E-25   5.177064391908341E-26
   2.442363580124624E-26   1.141304235005793E-26   5.282078560424189E-27
   2.420850062922393E-27   1.098593861355261E-27   4.935812406955021E-28
   2.195217749997491E-28   9.663593270481298E-29   4.210034489877183E-29
   1.814938154001792E-29   7.741224294722053E-30
    </PP_CHI.2>
  </PP_PSWFC>
  <PP_RHOATOM size="1211">
   1.257963264712535E-09   1.289808756292065E-09   1.322460420324886E-09
   1.355938665163605E-09   1.390264415800715E-09   1.425459126947415E-09
   1.461544796443480E-09   1.498543979006649E-09   1.536479800330033E-09
   1.575375971536453E-09   1.615256803998632E-09   1.656147224534616E-09
   1.698072790987835E-09   1.741059708201582E-09   1.785134844397915E-09
   1.830325747971139E-09   1.876660664706462E-09   1.924168555434531E-09
   1.972879114132887E-09   2.022822786485674E-09   2.074030788913165E-09
   2.126535128083060E-09   2.180368620915670E-09   2.235564915095577E-09
   2.292158510102526E-09   2.350184778774712E-09   2.409679989417965E-09
   2.470681328474608E-09   2.533226923766192E-09   2.597355868324651E-09
   2.663108244826669E-09   2.730525150646685E-09   2.799648723544085E-09
   2.870522168000648E-09   2.943189782224803E-09   3.017696985839380E-09
   3.094090348270394E-09   3.172417617854423E-09   3.252727751682895E-09
   3.335070946201844E-09   3.419498668586315E-09   3.506063688909009E-09
   3.594820113123312E-09   3.685823416881267E-09   3.779130480207666E-09
   3.874799623051870E-09   3.972890641739716E-09   4.073464846348122E-09
   4.176585099025919E-09   4.282315853284698E-09   4.390723194284350E-09
   4.501874880138437E-09   4.615840384265214E-09   4.732690938810751E-09
   4.852499579171383E-09   4.975341189643123E-09   5.101292550226833E-09
   5.230432384618197E-09   5.362841409412561E-09   5.498602384555468E-09
   5.637800165070252E-09   5.780521754095200E-09   5.926856357263346E-09
   6.076895438458835E-09   6.230732776984878E-09   6.388464526178791E-09
   6.550189273510973E-09   6.716008102205252E-09   6.886024654419200E-09
   7.060345196023802E-09   7.239078683023074E-09   7.422336829655097E-09
   7.610234178217009E-09   7.802888170657653E-09   8.000419221982649E-09
   8.202950795517571E-09   8.410609480076546E-09   8.623525069084355E-09
   8.841830641701533E-09   9.065662646003183E-09   9.295160984263327E-09
   9.530469100398419E-09   9.771734069624371E-09   1.001910669038338E-08
   1.027274157859775E-08   1.053279726430986E-08   1.079943629076856E-08
   1.107282531602393E-08   1.135313521709396E-08   1.164054119676815E-08
   1.193522289311491E-08   1.223736449176118E-08   1.254715484101428E-08
   1.286478756989831E-08   1.319046120917843E-08   1.352437931544901E-08
   1.386675059836302E-08   1.421778905108234E-08   1.457771408403025E-08
   1.494675066203014E-08   1.532512944491563E-08   1.571308693170043E-08
   1.611086560839776E-08   1.651871409958201E-08   1.693688732378696E-08
   1.736564665283804E-08   1.780526007521818E-08   1.825600236356911E-08
   1.871815524643310E-08   1.919200758434237E-08   1.967785555036609E-08
   2.017600281522798E-08   2.068676073711037E-08   2.121044855626286E-08
   2.174739359453783E-08   2.229793145997694E-08   2.286240625657673E-08
   2.344117079936499E-08   2.403458683492092E-08   2.464302526747873E-08
   2.526686639075420E-08   2.590650012564069E-08   2.656232626392178E-08
   2.723475471815401E-08   2.792420577787536E-08   2.863111037229931E-08
   2.935591033965949E-08   3.009905870337230E-08   3.086101995519130E-08
   3.164227034552894E-08   3.244329818112834E-08   3.326460413027021E-08
   3.410670153570654E-08   3.497011673551599E-08   3.585538939208176E-08
   3.676307282939765E-08   3.769373437891283E-08   3.864795573413197E-08
   3.962633331419194E-08   4.062947863664267E-08   4.165801869966436E-08
   4.271259637396151E-08   4.379387080457690E-08   4.490251782287797E-08
   4.603923036897273E-08   4.720471892481879E-08   4.839971195829636E-08
   4.962495637852432E-08   5.088121800270061E-08   5.216928203476287E-08
   5.348995355616425E-08   5.484405802907488E-08   5.623244181232092E-08
   5.765597269038549E-08   5.911554041580057E-08   6.061205726526942E-08
   6.214645860986812E-08   6.371970349968101E-08   6.533277526323649E-08
   6.698668212211756E-08   6.868245782113136E-08   7.042116227443053E-08
   7.220388222799302E-08   7.403173193887038E-08   7.590585387163338E-08
   7.782741941244531E-08   7.979762960121642E-08   8.181771588228792E-08
   8.388894087412281E-08   8.601259915848062E-08   8.819001808956935E-08
   9.042255862368244E-08   9.271161616983637E-08   9.505862146194336E-08
   9.746504145306377E-08   9.993238023229254E-08   1.024621799648630E-07
   1.050560218560437E-07   1.077155271394383E-07   1.104423580903057E-07
   1.132382190645286E-07   1.161048575638886E-07   1.190440653283042E-07
   1.220576794557203E-07   1.251475835503488E-07   1.283157088999743E-07
   1.315640356830663E-07   1.348945942064464E-07   1.383094661742887E-07
   1.418107859892452E-07   1.454007420865062E-07   1.490815783016368E-07
   1.528555952730360E-07   1.567251518798996E-07   1.606926667165888E-07
   1.647606196043154E-07   1.689315531411031E-07   1.732080742909778E-07
   1.775928560133939E-07   1.820886389339088E-07   1.866982330571435E-07
   1.914245195231184E-07   1.962704524080389E-07   2.012390605706747E-07
   2.063334495454775E-07   2.115568034836202E-07   2.169123871431801E-07
   2.224035479296936E-07   2.280337179883756E-07   2.338064163492992E-07
   2.397252511268773E-07   2.457939217750299E-07   2.520162213994362E-07
   2.583960391283205E-07   2.649373625432570E-07   2.716442801715024E-07
   2.785209840414366E-07   2.855717723026720E-07   2.928010519125062E-07
   3.002133413903811E-07   3.078132736420552E-07   3.156055988552913E-07
   3.235951874688253E-07   3.317870332165091E-07   3.401862562485086E-07
   3.487981063315102E-07   3.576279661299462E-07   3.666813545702825E-07
   3.759639302904610E-07   3.854814951766793E-07   3.952399979896871E-07
   4.052455380828943E-07   4.155043692145890E-07   4.260229034566644E-07
   4.368077152023016E-07   4.478655452750840E-07   4.592033051421579E-07
   4.708280812340202E-07   4.827471393736823E-07   4.949679293179393E-07
   5.074980894136033E-07   5.203454513716112E-07   5.335180451619785E-07
   5.470241040326682E-07   5.608720696555125E-07   5.750705974023879E-07
   5.896285617549717E-07   6.045550618514207E-07   6.198594271734774E-07
   6.355512233775317E-07   6.516402582732901E-07   6.681365879537861E-07
   6.850505230805839E-07   7.023926353280639E-07   7.201737639908568E-07
   7.384050227585223E-07   7.570978066617422E-07   7.762637991943247E-07
   7.959149796155075E-07   8.160636304371168E-07   8.367223451002403E-07
   8.579040358462444E-07   8.796219417870136E-07   9.018896371794973E-07
   9.247210399097095E-07   9.481304201914869E-07   9.721324094854472E-07
   9.967420096437177E-07   1.021974602286153E-06   1.047845958413889E-06
   1.074372248266259E-06   1.101570051427222E-06   1.129456367187605E-06
   1.158048625169670E-06   1.187364696220609E-06   1.217422903581788E-06
   1.248242034340733E-06   1.279841351172999E-06   1.312240604381236E-06
   1.345460044239055E-06   1.379520433647297E-06   1.414443061110709E-06
   1.450249754043073E-06   1.486962892409147E-06   1.524605422711917E-06
   1.563200872333872E-06   1.602773364241353E-06   1.643347632061076E-06
   1.684949035538246E-06   1.727603576386021E-06   1.771337914536132E-06
   1.816179384800842E-06   1.862156013956668E-06   1.909296538260494E-06
   1.957630421409115E-06   2.007187872953335E-06   2.057999867178165E-06
   2.110098162460934E-06   2.163515321119349E-06   2.218284729762002E-06
   2.274440620153930E-06   2.332018090610342E-06   2.391053127931855E-06
   2.451582629894914E-06   2.513644428311534E-06   2.577277312672605E-06
   2.642521054389774E-06   2.709416431650771E-06   2.778005254903987E-06
   2.848330392987953E-06   2.920435799922282E-06   2.994366542376630E-06
   3.070168827834944E-06   3.147890033472552E-06   3.227578735764165E-06
   3.309284740841189E-06   3.393059115617457E-06   3.478954219702693E-06
   3.567023738123723E-06   3.657322714873865E-06   3.749907587311337E-06
   3.844836221428425E-06   3.942167948013160E-06   4.041963599726195E-06
   4.144285549116181E-06   4.249197747597144E-06   4.356765765412375E-06
   4.467056832609725E-06   4.580139881053862E-06   4.696085587501890E-06
   4.814966417769025E-06   4.936856672012000E-06   5.061832531158529E-06
   5.189972104511734E-06   5.321355478559305E-06   5.456064767017908E-06
   5.594184162143878E-06   5.735799987342662E-06   5.881000751109436E-06
   6.029877202334756E-06   6.182522387009799E-06   6.339031706366564E-06
   6.499502976489270E-06   6.664036489434246E-06   6.832735075896424E-06
   7.005704169461733E-06   7.183051872485018E-06   7.364889023635294E-06
   7.551329267149886E-06   7.742489123841022E-06   7.938488063899243E-06
   8.139448581538573E-06   8.345496271530762E-06   8.556759907675829E-06
   8.773371523258134E-06   8.995466493538044E-06   9.223183620330649E-06
   9.456665218724593E-06   9.696057205994827E-06   9.941509192764706E-06
   1.019317457647472E-05   1.045121063721582E-05   1.071577863598693E-05
   1.098704391543870E-05   1.126517600316551E-05   1.155034871761072E-05
   1.184274027665094E-05   1.214253340892702E-05   1.244991546799143E-05
   1.276507854934297E-05   1.308821961042220E-05   1.341954059364157E-05
   1.375924855252796E-05   1.410755578105569E-05   1.446467994625078E-05
   1.483084422414908E-05   1.520627743919300E-05   1.559121420715391E-05
   1.598589508166908E-05   1.639056670448451E-05   1.680548195949768E-05
   1.723090013069521E-05   1.766708706408519E-05   1.811431533372393E-05
   1.857286441194112E-05   1.904302084386966E-05   1.952507842638807E-05
   2.001933839158756E-05   2.052610959487775E-05   2.104570870784877E-05
   2.157846041600908E-05   2.212469762152190E-05   2.268476165106764E-05
   2.325900246896075E-05   2.384777889565408E-05   2.445145883176642E-05
   2.507041948777242E-05   2.570504761949924E-05   2.635573976957402E-05
   2.702290251497467E-05   2.770695272083677E-05   2.840831780067452E-05
   2.912743598317789E-05   2.986475658575119E-05   3.062074029496402E-05
   3.139585945408852E-05   3.219059835790116E-05   3.300545355493294E-05
   3.384093415735569E-05   3.469756215869643E-05   3.557587275957762E-05
   3.647641470168567E-05   3.739975061017477E-05   3.834645734471870E-05
   3.931712635942868E-05   4.031236407186023E-05   4.133279224133884E-05
   4.237904835683765E-05   4.345178603464987E-05   4.455167542609981E-05
   4.567940363554854E-05   4.683567514895025E-05   4.802121227322717E-05
   4.923675558673336E-05   5.048306440108819E-05   5.176091723466515E-05
   5.307111229802761E-05   5.441446799161390E-05   5.579182341597938E-05
   5.720403889491014E-05   5.865199651173345E-05   6.013660065915534E-05
   6.165877860296541E-05   6.321948105995930E-05   6.481968279043102E-05
   6.646038320560762E-05   6.814260699039660E-05   6.986740474183179E-05
   7.163585362361197E-05   7.344905803713644E-05   7.530815030944981E-05
   7.721429139852260E-05   7.916867161630106E-05   8.117251136996849E-05
   8.322706192188218E-05   8.533360616864619E-05   8.749345943980434E-05
   8.970797031663944E-05   9.197852147159120E-05   9.430653052879800E-05
   9.669345094630068E-05   9.914077292044354E-05   1.016500243130289E-04
   1.042227716017979E-04   1.068606208548173E-04   1.095652187293677E-04
   1.123382534959519E-04   1.151814560880410E-04   1.180966011782084E-04
   1.210855082813070E-04   1.241500428853623E-04   1.272921176108791E-04
   1.305136933992584E-04   1.338167807310610E-04   1.372034408748547E-04
   1.406757871674074E-04   1.442359863260065E-04   1.478862597937021E-04
   1.516288851182935E-04   1.554661973658984E-04   1.594005905699581E-04
   1.634345192165708E-04   1.675704997670313E-04   1.718111122185280E-04
   1.761590017039173E-04   1.806168801315619E-04   1.851875278662111E-04
   1.898737954519455E-04   1.946786053782242E-04   1.996049538900996E-04
   2.046559128436920E-04   2.098346316080339E-04   2.151443390144358E-04
   2.205883453545409E-04   2.261700444282633E-04   2.318929156428472E-04
   2.377605261642925E-04   2.437765331224387E-04   2.499446858710281E-04
   2.562688283040885E-04   2.627529012300240E-04   2.694009448048175E-04
   2.762171010258016E-04   2.832056162874672E-04   2.903708440008371E-04
   2.977172472779410E-04   3.052494016829993E-04   3.129719980519070E-04
   3.208898453817205E-04   3.290078737918047E-04   3.373311375584216E-04
   3.458648182245099E-04   3.546142277864848E-04   3.635848119599302E-04
   3.727821535260755E-04   3.822119757610110E-04   3.918801459496513E-04
   4.017926789864501E-04   4.119557410649807E-04   4.223756534585166E-04
   4.330588963937657E-04   4.440121130200063E-04   4.552421134759078E-04
   4.667558790563573E-04   4.785605664816669E-04   4.906635122716103E-04
   5.030722372267726E-04   5.157944510197372E-04   5.288380568987340E-04
   5.422111565063931E-04   5.559220548163013E-04   5.699792651901558E-04
   5.843915145583140E-04   5.991677487266680E-04   6.143171378127491E-04
   6.298490818141131E-04   6.457732163120599E-04   6.620994183138179E-04
   6.788378122364392E-04   6.959987760356342E-04   7.135929474828802E-04
   7.316312305942614E-04   7.501248022144443E-04   7.690851187593728E-04
   7.885239231212983E-04   8.084532517397876E-04   8.288854418425214E-04
   8.498331388596459E-04   8.713093040156346E-04   8.933272221025928E-04
   9.159005094390869E-04   9.390431220185917E-04   9.627693638517552E-04
   9.870938955067936E-04   1.012031742852314E-03   1.037598306007002E-03
   1.063809368500740E-03   1.090681106651623E-03   1.118230099163650E-03
   1.146473336949707E-03   1.175428233184759E-03   1.205112633594075E-03
   1.235544826981455E-03   1.266743556002519E-03   1.298728028188144E-03
   1.331517927223290E-03   1.365133424486424E-03   1.399595190854872E-03
   1.434924408781575E-03   1.471142784648670E-03   1.508272561403431E-03
   1.546336531482248E-03   1.585358050028246E-03   1.625361048408330E-03
   1.666370048035473E-03   1.708410174502024E-03   1.751507172030058E-03
   1.795687418244652E-03   1.840977939276133E-03   1.887406425197351E-03
   1.935001245802071E-03   1.983791466730606E-03   2.033806865948875E-03
   2.085077950587032E-03   2.137635974143947E-03   2.191512954063668E-03
   2.246741689690153E-03   2.303355780606434E-03   2.361389645364488E-03
   2.420878540611985E-03   2.481858580622099E-03   2.544366757232484E-03
   2.608440960199453E-03   2.674119997973573E-03   2.741443618902443E-03
   2.810452532866590E-03   2.881188433354360E-03   2.953694019981328E-03
   3.028013021459889E-03   3.104190219024419E-03   3.182271470317184E-03
   3.262303733740251E-03   3.344335093278040E-03   3.428414783795438E-03
   3.514593216815662E-03   3.602922006782303E-03   3.693453997809298E-03
   3.786243290922254E-03   3.881345271794788E-03   3.978816638982354E-03
   4.078715432656229E-03   4.181101063839809E-03   4.286034344148517E-03
   4.393577516034801E-03   4.503794283538544E-03   4.616749843542911E-03
   4.732510917535052E-03   4.851145783870460E-03   4.972724310538887E-03
   5.097317988429151E-03   5.224999965089319E-03   5.355845078977778E-03
   5.489929894199963E-03   5.627332735724432E-03   5.768133725071093E-03
   5.912414816462884E-03   6.060259833431730E-03   6.211754505867412E-03
   6.366986507497772E-03   6.526045493786327E-03   6.689023140232397E-03
   6.856013181057177E-03   7.027111448257413E-03   7.202415911006828E-03
   7.382026715383374E-03   7.566046224398534E-03   7.754579058302789E-03
   7.947732135139244E-03   8.145614711514931E-03   8.348338423557432E-03
   8.556017328021095E-03   8.768767943505045E-03   8.986709291742103E-03
   9.209962938915430E-03   9.438653036954844E-03   9.672906364764035E-03
   9.912852369324024E-03   1.015862320661629E-02   1.041035378230446E-02
   1.066818179210951E-02   1.093224776180964E-02   1.120269508679135E-02
   1.147967007107346E-02   1.176332196572206E-02   1.205380300656789E-02
   1.235126845113378E-02   1.265587661467401E-02   1.296778890522098E-02
   1.328716985753030E-02   1.361418716580733E-02   1.394901171509351E-02
   1.429181761118314E-02   1.464278220893461E-02   1.500208613883312E-02
   1.536991333165418E-02   1.574645104106868E-02   1.613188986402510E-02
   1.652642375873143E-02   1.693025006005576E-02   1.734356949215119E-02
   1.776658617810519E-02   1.819950764640119E-02   1.864254483397173E-02
   1.909591208561246E-02   1.955982714951522E-02   2.003451116866765E-02
   2.052018866785800E-02   2.101708753600775E-02   2.152543900354954E-02
   2.204547761455055E-02   2.257744119327128E-02   2.312157080484079E-02
   2.367811070971094E-02   2.424730831154504E-02   2.482941409818056E-02
   2.542468157529242E-02   2.603336719237517E-02   2.665573026064118E-02
   2.729203286242853E-02   2.794253975169092E-02   2.860751824513530E-02
   2.928723810355813E-02   2.998197140291700E-02   3.069199239466789E-02
   3.141757735488056E-02   3.215900442163738E-02   3.291655342021052E-02
   3.369050567550257E-02   3.448114381122608E-02   3.528875153529049E-02
   3.611361341085984E-02   3.695601461253924E-02   3.781624066714265E-02
   3.869457717849527E-02   3.959130953572501E-02   4.050672260449629E-02
   4.144110040064961E-02   4.239472574571256E-02   4.336787990376693E-02
   4.436084219916155E-02   4.537388961458605E-02   4.640729636904212E-02
   4.746133347527066E-02   4.853626827623465E-02   4.963236396028588E-02
   5.074987905469499E-02   5.188906689726967E-02   5.305017508584620E-02
   5.423344490550606E-02   5.543911073343939E-02   5.666739942146598E-02
   5.791852965631501E-02   5.919271129787069E-02   6.049014469570655E-02
   6.181101998436030E-02   6.315551635794772E-02   6.452380132486926E-02
   6.591602994353778E-02   6.733234404024796E-02   6.877287141051686E-02
   7.023772500545872E-02   7.172700210500857E-02   7.324078348007505E-02
   7.477913254601554E-02   7.634209451013925E-02   7.792969551630710E-02
   7.954194179007397E-02   8.117881878823129E-02   8.284029035706490E-02
   8.452629790411947E-02   8.623675958877590E-02   8.797156953753545E-02
   8.973059709047024E-02   9.151368608598150E-02   9.332065419168187E-02
   9.515129228997245E-02   9.700536392768111E-02   9.888260483997438E-02
   1.007827225596643E-01   1.027053961240086E-01   1.046502758921173E-01
   1.066169834871839E-01   1.086051118789042E-01   1.106142256227038E-01
   1.126438612736517E-01   1.146935279943511E-01   1.167627083775233E-01
   1.188508595055174E-01   1.209574142706040E-01   1.230817829815583E-01
   1.252233552838074E-01   1.273815024222533E-01   1.295555798777733E-01
   1.317449304104101E-01   1.339488875442854E-01   1.361667795314300E-01
   1.383979338338863E-01   1.406416821657030E-01   1.428973661387345E-01
   1.451643435585069E-01   1.474419954187844E-01   1.497297336458867E-01
   1.520270096461815E-01   1.543333237126303E-01   1.566482353485789E-01
   1.589713745693482E-01   1.613024542444394E-01   1.636412835452949E-01
   1.659877825655965E-01   1.683419981829382E-01   1.707041212323782E-01
   1.730745050637489E-01   1.754536855557493E-01   1.778424026605902E-01
   1.802416235533152E-01   1.826525674597897E-01   1.850767322367267E-01
   1.875159227757702E-01   1.899722813017228E-01   1.924483196321713E-01
   1.949469534621053E-01   1.974715387323986E-01   2.000259101352319E-01
   2.026144218024659E-01   2.052419902145380E-01   2.079141393574938E-01
   2.106370481441509E-01   2.134176001019447E-01   2.162634353145814E-01
   2.191830045870017E-01   2.221856257832599E-01   2.252815422644430E-01
   2.284819833285468E-01   2.317992265262446E-01   2.352466616951786E-01
   2.388388565210248E-01   2.425916233955520E-01   2.465220873003199E-01
   2.506487543991531E-01   2.549915809730521E-01   2.595720422776287E-01
   2.644132008451966E-01   2.695397736914604E-01   2.749781978201212E-01
   2.807566933476257E-01   2.869053234949096E-01   2.934560506133138E-01
   3.004427873281305E-01   3.079014417956791E-01   3.158699559788423E-01
   3.243883357521087E-01   3.334986715507421E-01   3.432451481809418E-01
   3.536740423091222E-01   3.648337060501935E-01   3.767745349781899E-01
   3.895489187889769E-01   4.032111727562194E-01   4.178174480399783E-01
   4.334256188344737E-01   4.500951442805655E-01   4.678869030216624E-01
   4.868629982528287E-01   5.070865311048879E-01   5.286213402223223E-01
   5.515317054401261E-01   5.758820135445102E-01   6.017363842210935E-01
   6.291582544565641E-01   6.582099198714553E-01   6.889520317287214E-01
   7.214430486906698E-01   7.557386427920827E-01   7.918910595662073E-01
   8.299484328083454E-01   8.699540550959586E-01   9.119456059089454E-01
   9.559543400153708E-01   1.002004239710041E+00   1.050111135519380E+00
   1.100281801118961E+00   1.152513029449269E+00   1.206790698360551E+00
   1.263088835564763E+00   1.321368694214875E+00   1.381577852060937E+00
   1.443649348832986E+00   1.507500878257082E+00   1.573034052900344E+00
   1.640133761833775E+00   1.708667642867415E+00   1.778485692808388E+00
   1.849420040773229E+00   1.921284910996264E+00   1.993876802753544E+00
   2.066974915897871E+00   2.140341850994790E+00   2.213724613077863E+00
   2.286855947509260E+00   2.359456035238376E+00   2.431234572791789E+00
   2.501893259489757E+00   2.571128710557510E+00   2.638635809869274E+00
   2.704111509921230E+00   2.767259079174904E+00   2.827792788054603E+00
   2.885443014549649E+00   2.939961738515684E+00   2.991128380370339E+00
   3.038755924959812E+00   3.082697254999746E+00   3.122851600792944E+00
   3.159170994087387E+00   3.191666594227997E+00   3.220414734528338E+00
   3.245523373923453E+00   3.266997146175886E+00   3.284817872509052E+00
   3.298978203504540E+00   3.309481477429989E+00   3.316341534663184E+00
   3.319582489700342E+00   3.319238462494096E+00   3.315353271110474E+00
   3.307980087921319E+00   3.297181061756154E+00   3.283026908623878E+00
   3.265596473777656E+00   3.244976268034253E+00   3.221259981371313E+00
   3.194547976911610E+00   3.164946768461668E+00   3.132568484803854E+00
   3.097530323945800E+00   3.059954000515754E+00   3.019965189449086E+00
   2.977692968988565E+00   2.933269266012595E+00   2.886828306552240E+00
   2.838506074224161E+00   2.788439779163861E+00   2.736767339881094E+00
   2.683626880284415E+00   2.629156243936597E+00   2.573492524181785E+00
   2.516771590610059E+00   2.459127730195758E+00   2.400693214470527E+00
   2.341597922916222E+00   2.281968992751960E+00   2.221930494782652E+00
   2.161603135770959E+00   2.101103987607992E+00   2.040546243379250E+00
   1.980039000253106E+00   1.919687068959611E+00   1.859590809479013E+00
   1.799845992422530E+00   1.740543685462780E+00   1.681770164058778E+00
   1.623606845620011E+00   1.566130246166397E+00   1.509411958465892E+00
   1.453518650566374E+00   1.398512083591489E+00   1.344449147624365E+00
   1.291381914478445E+00   1.239357706134276E+00   1.188419177612437E+00
   1.138604413053142E+00   1.089947033781560E+00   1.042476317154202E+00
   9.962173250049906E-01   9.511910405388990E-01   9.074145125560268E-01
   8.649010059283647E-01   8.236601572951072E-01   7.836981349891226E-01
   7.450178022565621E-01   7.076188828830503E-01   6.714981283925737E-01
   6.366494860388322E-01   6.030642668626823E-01   5.707313131429994E-01
   5.396371646214984E-01   5.097662229341041E-01   4.811009137324100E-01
   4.536218460280051E-01   4.273079683398636E-01   4.021367212704499E-01
   3.780841861793753E-01   3.551252296644249E-01   3.332336435983069E-01
   3.123822805056343E-01   2.925431840984175E-01   2.736877148196420E-01
   2.557866702735433E-01   2.388104004479013E-01   2.227289176582137E-01
   2.075120011661032E-01   1.931292964448237E-01   1.795504090834570E-01
   1.667449933384368E-01   1.546828353565310E-01   1.433339311075657E-01
   1.326685590780368E-01   1.226573477885437E-01   1.132713382087945E-01
   1.044820411538715E-01   9.626148975468211E-02   8.858228710408846E-02
   8.141764918824705E-02   7.474144322024415E-02   6.852822150024207E-02
   6.275325093312796E-02   5.739253834107258E-02   5.242285171451449E-02
   4.782173755086985E-02   4.356753443572684E-02   3.963938302640984E-02
   3.601723260254861E-02   3.268184435264500E-02   2.961479156954697E-02
   2.679845693117203E-02   2.421602704573336E-02   2.185148444305652E-02
   1.968959719529679E-02   1.771590635143117E-02   1.591671137026831E-02
   1.427905373636843E-02   1.279069894216200E-02   1.144011701769242E-02
   1.021646178677248E-02   9.109549024940135E-03   8.109833690440094E-03
   7.208386394560859E-03   6.396869272057901E-03   5.667511406128837E-03
   5.013083955524505E-03   4.426875123939155E-03   3.902665103882763E-03
   3.434701118870144E-03   3.017672679036881E-03   2.646687156287819E-03
   2.317245775879506E-03   2.025220112012379E-03   1.766829165642110E-03
   1.538617093384437E-03   1.337431647181785E-03   1.160403375350106E-03
   1.004925626847930E-03   8.686353921358193E-04   7.493950058889713E-04
   6.452747291370222E-04   5.545362211743747E-04   4.756169048459589E-04
   4.071152225944579E-04   3.477767749750331E-04   2.964813282147753E-04
   2.522306728219057E-04   2.141373112325557E-04   1.814139490134121E-04
   1.533637612032491E-04   1.293714029571120E-04   1.088947317309519E-04
   9.145720678518877E-05   7.664093076341476E-05   6.408029748503263E-05
   5.345620984414697E-05   4.449083179636259E-05   3.694283880458666E-05
   3.060313176875452E-05   2.529098034733243E-05   2.085056265614076E-05
   1.714786956944684E-05   1.406794321796865E-05   1.151242074890187E-05
   9.397355956920376E-06   7.651292987163961E-06   6.213567928745241E-06
   5.032815739917869E-06   4.065661555819358E-06   3.275577011088622E-06
   2.631883749436567E-06   2.108887779419306E-06   1.685129761325649E-06
   1.342737667303798E-06   1.066869540478369E-06   8.452352853476670E-07
   6.676875491660924E-07   5.258728015629279E-07   4.129346879359340E-07
   3.232626216821199E-07   2.522793948834768E-07   1.962639485277953E-07
   1.522115753367681E-07   1.176765220845020E-07   9.068793690175472E-08
   6.966411399257145E-08   5.333972084118492E-08   4.070579945660219E-08
   3.096046323754263E-08   2.346851863966487E-08   1.772850830015691E-08
   1.334590395766581E-08   1.001137740743350E-08   7.483249535804859E-09
   5.573364554950959E-09   4.135761964782756E-09   3.057625271820310E-09
   2.252076579069791E-09   1.652462048749371E-09   1.207836906846734E-09
   8.794118527651746E-10   6.377669967205924E-10   4.606761184892580E-10
   3.314142961921301E-10   2.374468090670961E-10   1.694175494906290E-10
   1.203717380528862E-10   8.516116224494998E-11   5.999099844145423E-11
   4.207598796453147E-11   2.938070731233275E-11   2.042422301288046E-11
   1.413382157788999E-11   9.735976901412010E-12   6.675444104025916E-12
   4.555500069857351E-12   3.094008800500898E-12   2.091273116166055E-12
   1.406622898936404E-12   9.414479105604870E-13   6.269612393854274E-13
   4.154180562670426E-13   2.738455213861666E-13   1.795884166399817E-13
   1.171609261183858E-13   7.603311695669592E-14   4.908278961300696E-14
   3.151845294178352E-14   2.013408958765978E-14   1.279631150819074E-14
   8.093386535173090E-15   5.096386526265786E-15   3.197558962004339E-15
   2.001582139683894E-15   1.252826754402035E-15   7.794651716715919E-16
   4.820115595379869E-16   2.962373219143090E-16   1.809296699913036E-16
   1.098078030501575E-16   6.621788006210048E-17   3.967352895383060E-17
   2.361425628970071E-17   1.396238268715225E-17   8.200118350591386E-18
   4.783205711732617E-18   2.770887710492191E-18   1.593976183330182E-18
   9.104778698654146E-19   5.163483282163251E-19   2.907117827285642E-19
   1.624759714237844E-19   9.013261483534906E-20   4.962497324911428E-20
   2.711457129390993E-20   1.470102028472581E-20   7.908463259238462E-21
   4.220789527808716E-21   2.234646360116056E-21   1.173527911383482E-21
   6.112276602094063E-22   3.157129671630640E-22   1.617022290824595E-22
   8.211594761613089E-23   4.134091604441593E-23   2.063128831733978E-23
   1.020512324104168E-23   5.002731525206297E-24   2.430210830921680E-24
   1.169711276785998E-24   5.577773862400240E-25   2.634750701642652E-25
   1.232715373511720E-25   5.711870613086214E-26   2.620795450701208E-26
   1.190620599983079E-26   5.354818688266819E-27   2.383922805700634E-27
   1.050412504110710E-27   4.580273284137951E-28   1.976193838905956E-28
   8.435609024023438E-29   3.561996430814597E-29   1.487651828054042E-29
   6.144404606172570E-30   2.509389896851360E-30   1.013222210381578E-30
   4.044148405247962E-31   1.595409304906630E-31   6.219791745946356E-32
   2.395926455932580E-32   9.117997212621087E-33   3.427578045728115E-33
   1.272535578638819E-33   4.665295018850065E-34   1.688674508962008E-34
   6.033935062034159E-35   2.128004201419371E-35   7.406105987101954E-36
   2.543199830254859E-36   8.615307608326986E-37   2.878634505033504E-37
   9.485330409653871E-38   3.081714602806039E-38   9.870274822743232E-39
   3.115909540837682E-39   9.693488815089453E-40   2.971221153387394E-40
   8.971567826206813E-41   2.668075428777146E-41   7.813418965266284E-42
   2.252750971579718E-42   6.393358814031834E-43   1.785675239992227E-43
   4.907338079127140E-44   1.326694980201096E-44   3.527671914204825E-45
   9.223729241495656E-46   2.371014902750665E-46   5.990710985845283E-47
   1.487457607909692E-47   3.628587376291521E-48   8.694823035321707E-49
   2.046050196331339E-49   4.727212961017460E-50   1.072079828718611E-50
   2.386055943007668E-51   5.210301427368634E-52   1.116014156739715E-52
   2.344206010860541E-53   4.827633888829852E-54   9.744897646660447E-55
   1.927592387961619E-55   3.735401395891657E-56   7.089756162382171E-57
   1.317600201140574E-57   2.397062143247798E-58
  </PP_RHOATOM>
</UPF>
