FeSe High-temp Phase
   1.0000000000000000
     3.7685000000000000    0.0000000000000000    0.0000000000000000
     0.0000000000000000    3.7685000000000000    0.0000000000000000
     0.0000000000000000    0.0000000000000000    5.5194000000000001
   Fe   Se
     2     2
Direct
     0.7500000000000000    0.2500000000000000    0.0000000000000000
     0.2500000000000000    0.7500000000000000    0.0000000000000000
     0.2500000000000000    0.2500000000000000    0.2313160684842216
     0.7500000000000000    0.7500000000000000    0.7686839315157784

  0.00000000E+00  0.00000000E+00  0.00000000E+00
  0.00000000E+00  0.00000000E+00  0.00000000E+00
  0.00000000E+00  0.00000000E+00  0.00000000E+00
  0.00000000E+00  0.00000000E+00  0.00000000E+00
